 vasp.6.3.0 20Jan22 (build Mar 03 2022 12:53:00) gamma-only

 executed on             LinuxIFC date 2022.03.18  15:21:04

 INCAR:
   ENCUT = 400
   SIGMA = 0.0001
   EDIFF = 1E-6
   LHFCALC = .TRUE.
   AEXX = 1.0
   ALGO = C

 POTCAR:    PAW Si_GW 04May2012
|           W    W    AA    RRRRR   N    N  II  N    N   GGGG   !!!           |
|           W    W   A  A   R    R  NN   N  II  NN   N  G    G  !!!           |
|           W    W  A    A  R    R  N N  N  II  N N  N  G       !!!           |
|           W WW W  AAAAAA  RRRRR   N  N N  II  N  N N  G  GGG   !            |
|           WW  WW  A    A  R   R   N   NN  II  N   NN  G    G                |
|           W    W  A    A  R    R  N    N  II  N    N   GGGG   !!!           |
|     For optimal performance we recommend to set                             |
|       NCORE = 2 up to number-of-cores-per-socket                            |
|     This setting can greatly improve the performance of VASP for DFT.       |
|     The default, NCORE=1 might be grossly inefficient on modern             |
|     multi-core architectures or massively parallel machines. Do your        |
|     Unfortunately you need to use the default for GW and RPA                |
|     calculations (for HF NCORE is supported but not extensively tested      |
|     yet).                                                                   |

 POTCAR:    PAW Si_GW 04May2012
   VRHFIN =Si: s2p2

   TITEL  = PAW Si_GW 04May2012
   POMASS =   28.085; ZVAL   =    4.000    mass and valenz
   ENMAX  =  245.345; ENMIN  =  184.009 eV

  PAW Si_GW 04May2012                   :

 POSCAR: cd:
  positions in direct lattice
  velocities in cartesian coordinates
 exchange correlation table for  LEXCH =        8
   RHO(1)=    0.500       N(1)  =     2000
   RHO(2)=  100.500       N(2)  =     4000

 ion  position               nearest neighbor table
   1  0.284  0.284  0.147-   3 2.44   4 2.44   5 2.44  10 2.44  11 2.44  12 2.44  14 2.64
   2  0.018  0.018  0.945-  11 2.33  12 2.33  10 2.33  14 2.40
   3  0.501  0.992  0.006-  15 2.35  13 2.37   1 2.44  11 2.48  10 2.48
   4  0.992  0.501  0.006-  16 2.35  13 2.37   1 2.44  12 2.48  10 2.48
   5  0.501  0.501  0.006-  17 2.35  13 2.37   1 2.44  11 2.48  12 2.48
   6  0.993  0.993  0.500-  15 2.35  16 2.35  14 2.36  10 2.37
   7  0.513  0.993  0.500-  17 2.35  15 2.35  14 2.36  11 2.37
   8  0.993  0.513  0.500-  16 2.35  17 2.35  14 2.36  12 2.37
   9  0.494  0.494  0.519-  13 2.35  17 2.35  16 2.35  15 2.35
  10  0.109  0.109  0.126-   2 2.33   6 2.37   1 2.44   4 2.48   3 2.48
  11  0.655  0.109  0.126-   2 2.33   7 2.37   1 2.44   3 2.48   5 2.48
  12  0.109  0.655  0.126-   2 2.33   8 2.37   1 2.44   4 2.48   5 2.48
  13  0.618  0.618  0.147-   9 2.35   5 2.37   3 2.37   4 2.37
  14  0.145  0.145  0.565-   7 2.36   8 2.36   6 2.36   2 2.40   1 2.64
  15  0.622  0.121  0.635-   3 2.35   6 2.35   7 2.35   9 2.35
  16  0.121  0.622  0.635-   4 2.35   6 2.35   8 2.35   9 2.35
  17  0.622  0.622  0.635-   5 2.35   7 2.35   8 2.35   9 2.35

  LATTYP: Found a face centered cubic cell.
 ALAT       =    10.9394268000

  Lattice vectors:

 A1 = (   5.4697134000,   5.4697134000,   0.0000000000)
 A2 = (   0.0000000000,   5.4697134000,   5.4697134000)
 A3 = (   5.4697134000,   0.0000000000,   5.4697134000)

Analysis of symmetry for initial positions (statically):
 Subroutine PRICEL returns:
 Original cell was already a primitive cell.

 Routine SETGRP: Setting up the symmetry group for a
 face centered cubic supercell.

 Subroutine GETGRP returns: Found  6 space group operations
 (whereof  6 operations were pure point group operations)
 out of a pool of 48 trial point group operations.

The static configuration has the point symmetry C_3v.

Analysis of symmetry for dynamics (positions and initial velocities):
 Subroutine PRICEL returns:
 Original cell was already a primitive cell.

 Routine SETGRP: Setting up the symmetry group for a
 face centered cubic supercell.

 Subroutine GETGRP returns: Found  6 space group operations
 (whereof  6 operations were pure point group operations)
 out of a pool of 48 trial point group operations.

The dynamic configuration has the point symmetry C_3v.

 Subroutine INISYM returns: Found  6 space group operations
 (whereof  6 operations are pure point group operations),
 and found     1 'primitive' translations

                                     Primitive cell

  volume of cell :     327.2832

  direct lattice vectors                    reciprocal lattice vectors
     5.469713400  5.469713400  0.000000000     0.091412468  0.091412468 -0.091412468
     0.000000000  5.469713400  5.469713400    -0.091412468  0.091412468  0.091412468
     5.469713400  0.000000000  5.469713400     0.091412468 -0.091412468  0.091412468

  length of vectors
     7.735342873  7.735342873  7.735342873     0.158331039  0.158331039  0.158331039

  position of ions in fractional coordinates (direct lattice)
     0.284471511  0.284471511  0.146585467
     0.018175813  0.018175813  0.945472562
     0.501011833  0.992088329  0.005888006
     0.992088329  0.501011833  0.005888006
     0.501011833  0.501011833  0.005888006
     0.993336241  0.993336241  0.500231136
     0.513096381  0.993336241  0.500231136
     0.993336241  0.513096381  0.500231136
     0.493671771  0.493671771  0.518984687
     0.109447435  0.109447435  0.125847277
     0.655257852  0.109447435  0.125847277
     0.109447435  0.655257852  0.125847277
     0.617716309  0.617716309  0.146851073
     0.144941613  0.144941613  0.565175161
     0.622059679  0.121370045  0.634510597
     0.121370045  0.622059679  0.634510597
     0.622059679  0.622059679  0.634510597

  ion indices of the primitive-cell ions
   primitive index   ion index
                 1           1
                 2           2
                 3           3
                 4           4
                 5           5
                 6           6
                 7           7
                 8           8
                 9           9
                10          10
                11          11
                12          12
                13          13
                14          14
                15          15
                16          16
                17          17

 KPOINTS: Automatic mesh

Automatic generation of k-mesh.
 Grid dimensions read from file:
 generate k-points for:    1    1    1

 Generating k-lattice:

  Cartesian coordinates                     Fractional coordinates (reciprocal lattice)
     0.091412468  0.091412468 -0.091412468     1.000000000  0.000000000  0.000000000
    -0.091412468  0.091412468  0.091412468     0.000000000  1.000000000 -0.000000000
     0.091412468 -0.091412468  0.091412468    -0.000000000 -0.000000000  1.000000000

  Length of vectors
     0.158331039  0.158331039  0.158331039

  Shift w.r.t. Gamma in fractional coordinates (k-lattice)
     0.000000000  0.000000000  0.000000000

 Subroutine IBZKPT returns following result:

 Found      1 irreducible k-points:

 Following reciprocal coordinates:
            Coordinates               Weight
  0.000000  0.000000  0.000000      1.000000

 Following cartesian coordinates:
            Coordinates               Weight
  0.000000  0.000000  0.000000      1.000000

 Subroutine IBZKPT_HF returns following result:

 Found      1 k-points in 1st BZ
 the following      1 k-points will be used (e.g. in the exchange kernel)
 Following reciprocal coordinates:   # in IRBZ
  0.000000  0.000000  0.000000    1.00000000   1 t-inv F

 SYSTEM =  unknown system
 POSCAR =  cd:

 Startparameter for this run:
   NWRITE =      2    write-flag & timer
   PREC   = normal    normal or accurate (medium, high low for compatibility)
   ISTART =      0    job   : 0-new  1-cont  2-samecut
   ICHARG =      2    charge: 1-file 2-atom 10-const
   ISPIN  =      1    spin polarized calculation?
   LNONCOLLINEAR =      F non collinear calculations
   LSORBIT =      F    spin-orbit coupling
   INIWAV =      1    electr: 0-lowe 1-rand  2-diag
   LASPH  =      F    aspherical Exc in radial PAW
 Electronic Relaxation 1
   ENCUT  =  400.0 eV  29.40 Ry    5.42 a.u.  12.61 12.61 12.61*2*pi/ulx,y,z
   ENINI  =  400.0     initial cutoff
   ENAUG  =  413.0 eV  augmentation charge cutoff
   NELM   =     60;   NELMIN=  2; NELMDL= -5     # of ELM steps
   EDIFF  = 0.1E-05   stopping-criterion for ELM
   LREAL  =      F    real-space projection
   NLSPLINE    = F    spline interpolate recip. space projectors
   LCOMPAT=      F    compatible to vasp.4.4
   GGA_COMPAT  = T    GGA compatible to vasp.4.4-vasp.4.6
   LMAXPAW     = -100 max onsite density
   LMAXMIX     =    2 max onsite mixed and CHGCAR
   VOSKOWN=      0    Vosko Wilk Nusair interpolation
   ROPT   =    0.00000
 Ionic relaxation
   EDIFFG = 0.1E-04   stopping-criterion for IOM
   NSW    =      0    number of steps for IOM
   NBLOCK =      1;   KBLOCK =      1    inner block; outer block
   IBRION =     -1    ionic relax: 0-MD 1-quasi-New 2-CG
   NFREE  =      0    steps in history (QN), initial steepest desc. (CG)
   ISIF   =      0    stress and relaxation
   IWAVPR =     10    prediction:  0-non 1-charg 2-wave 3-comb
   ISYM   =      3    0-nonsym 1-usesym 2-fastsym
   LCORR  =      T    Harris-Foulkes like correction to forces

   POTIM  = 0.5000    time-step for ionic-motion
   TEIN   =    0.0    initial temperature
   TEBEG  =    0.0;   TEEND  =   0.0 temperature during run
   SMASS  =  -3.00    Nose mass-parameter (am)
   estimated Nose-frequenzy (Omega)   =  0.10E-29 period in steps = 0.13E+47 mass=  -0.137E-26a.u.
   SCALEE = 1.0000    scale energy and forces
   NPACO  =    256;   APACO  = 10.0  distance and # of slots for P.C.
   PSTRESS=    0.0 pullay stress

  Mass of Ions in am
   POMASS =  28.09
  Ionic Valenz
   ZVAL   =   4.00
  Atomic Wigner-Seitz radii
  virtual crystal weights
   VCA    =   1.00
   NELECT =      68.0000    total number of electrons
   NUPDOWN=      -1.0000    fix difference up-down

 DOS related values:
   EMIN   =  10.00;   EMAX   =-10.00  energy-range for DOS
   EFERMI =   0.00
   ISMEAR =     1;   SIGMA  =   0.00  broadening in eV -4-tet -1-fermi 0-gaus

 Electronic relaxation 2 (details)
   IALGO  =     58    algorithm
   LDIAG  =      T    sub-space diagonalisation (order eigenvalues)
   LSUBROT=      F    optimize rotation matrix (better conditioning)
   TURBO    =      0    0=normal 1=particle mesh
   IRESTART =      0    0=no restart 2=restart with 2 vectors
   NREBOOT  =      0    no. of reboots
   NMIN     =      0    reboot dimension
   EREF     =   0.00    reference energy to select bands
   IMIX   =      4    mixing-type and parameters
     AMIX     =   0.40;   BMIX     =  1.00
     AMIX_MAG =   1.60;   BMIX_MAG =  1.00
     AMIN     =   0.10
     WC   =   100.;   INIMIX=   1;  MIXPRE=   1;  MAXMIX= -45

 Intra band minimization:
   WEIMIN = 0.0000     energy-eigenvalue tresh-hold
   EBREAK =  0.65E-09  absolut break condition
   DEPER  =   0.30     relativ break condition

   TIME   =   0.40     timestep for ELM

  volume/ion in A,a.u.               =      19.25       129.92
[...]
   LSYMGRAD=     F    symmetrize gradient (conserves proper symmetry)
   PRECFOCK=normal    Normal, Fast or Accurate (Low or Medium for compatibility)
   LRHFCALC=     F    long range Hartree Fock
   LRSCOR  =     F    long range correlation only (use DFT for short range part)
   LTHOMAS =     F    Thomas Fermi screening in HF
   LMODELHF=     F    short range full HF, long range fraction AEXX
   LFOCKACE=     T    use Adeptively-Compressed-Exchange operator
   ENCUT4O =  -1.0   cutoff for four orbital integrals eV
   LMAXFOCK=     4    L truncation for augmentation on plane wave grid
   LMAXFOCKAE=  -1    L truncation for all-electron charge restoration on plane wave grid
   NMAXFOCKAE=   1    number of basis functions for all-electron charge restoration
   LFOCKAEDFT=     F  apply the AE augmentation even for DFT
   NKREDX  =     1    reduce k-point grid by
   NKREDY  =     1    reduce k-point grid by
   NKREDZ  =     1    reduce k-point grid by
   SHIFTRED=     F    shift reduced grid of Gamma
   HFKIDENT=     F    idential grid for each k-point
   ODDONLY =     F    use only odd q-grid points
   EVENONLY=     F    use only even q-grid points
   HFALPHA =   -1.0000 decay constant for conv. correction
   MCALPHA =    0.0000 extent of test-charge in conv. correction in multipole expansion
   AEXX    =    1.0000 exact exchange contribution
   HFSCREEN=    0.0000 screening length (either q_TF or 0.3 A-1)
   HFSCREENC=   0.0000 screening length for correlation (either q_TF or 0.3 A-1)
   HFRCUT  =    0.0000 spherical cutoff for potential kernel
   ALDAX   =    0.0000 LDA exchange part
   AGGAX   =    0.0000 GGA exchange part
   ALDAC   =    0.0000 LDA correlation
   AGGAC   =    0.0000 GGA correlation
   ENCUTFOCK=  -1.0 apply spherical cutoff to Coloumb kernel
   NBANDSGWLOW=     1    first orbital included in HF term
   NBLOCK_FOCK=    64    blocking factor in FOCK_ACC

 Linear response parameters
   LEPSILON=     F    determine dielectric tensor
   LRPA    =     F    only Hartree local field effects (RPA)
   LNABLA  =     F    use nabla operator in PAW spheres
   LVEL    =     F    velocity operator in full k-point grid
   CSHIFT  =0.1000    complex shift for real part using Kramers Kronig
   OMEGAMAX=  -1.0    maximum frequency
   DEG_THRESHOLD= 0.2000000E-02 threshold for treating states as degnerate
   RTIME   =   -0.100 relaxation time in fs
  (WPLASMAI=    0.000 imaginary part of plasma frequency in eV, 0.658/RTIME)
   DFIELD  = 0.0000000 0.0000000 0.0000000 field for delta impulse in time

  Optional k-point grid parameters
   LKPOINTS_OPT  =     F    use optional k-point grid
   KPOINTS_OPT_MODE=     1    mode for optional k-point grid

 Orbital magnetization related:
   ORBITALMAG=     F  switch on orbital magnetization
   LCHIMAG   =     F  perturbation theory with respect to B field
   DQ        =  0.001000  dq finite difference perturbation B field
   LLRAUG    =     F  two centre corrections for induced B field

 Static calculation
 charge density and potential will be updated during run
 non-spin polarized calculation
 Conjugate gradient for all bands (Freysoldt, et al. PRB 79, 241103 (2009))
 preconditioned conjugated gradient
 perform sub-space diagonalisation
    before iterative eigenvector-optimisation
 modified Broyden-mixing scheme, WC =      100.0
 initial mixing is a Kerker type mixing with AMIX =  0.4000 and BMIX =      1.0000
 Hartree-type preconditioning will be used
 using additional bands          350
 reciprocal scheme for non local part
 use partial core corrections
 no Harris-corrections to forces
 use gradient corrections
 use of overlap-Matrix (Vanderbilt PP)
 Methfessel and Paxton  Order N= 1 SIGMA  =   0.00

  energy-cutoff  :      400.00
  volume of cell :      327.28
      direct lattice vectors                 reciprocal lattice vectors
     5.469713400  5.469713400  0.000000000     0.091412468  0.091412468 -0.091412468
     0.000000000  5.469713400  5.469713400    -0.091412468  0.091412468  0.091412468
     5.469713400  0.000000000  5.469713400     0.091412468 -0.091412468  0.091412468

[...]

 k-points in units of 2pi/SCALE and weight: Automatic mesh
   0.00000000  0.00000000  0.00000000       1.000

 k-points in reciprocal lattice and weights: Automatic mesh
   0.00000000  0.00000000  0.00000000       1.000

 position of ions in fractional coordinates (direct lattice)
   0.28447151  0.28447151  0.14658547
   0.01817581  0.01817581  0.94547256
   0.50101183  0.99208833  0.00588801
   0.99208833  0.50101183  0.00588801
   0.50101183  0.50101183  0.00588801
   0.99333624  0.99333624  0.50023114
   0.51309638  0.99333624  0.50023114
   0.99333624  0.51309638  0.50023114
   0.49367177  0.49367177  0.51898469
   0.10944744  0.10944744  0.12584728
   0.65525785  0.10944744  0.12584728
   0.10944744  0.65525785  0.12584728
   0.61771631  0.61771631  0.14685107
   0.14494161  0.14494161  0.56517516
   0.62205968  0.12137004  0.63451060
   0.12137004  0.62205968  0.63451060
   0.62205968  0.62205968  0.63451060

 position of ions in cartesian coordinates  (Angst):
   2.35775813  3.11195527  2.35775813
   5.27088043  0.19883297  5.27088043
   2.77259684  8.16682996  5.45864453
   5.45864453  8.16682996  2.77259684
   2.77259684  5.48078227  2.77259684
   8.16938550 10.86652910  8.16938550
   5.54261110  8.23975470  8.16938550
   8.16938550  8.23975470  5.54261110
   5.53894060  5.40048620  5.53894060
   1.28699464  1.19729221  1.28699464
   4.27242119  4.18271876  1.28699464
   1.28699464  4.18271876  4.27242119
   4.18196446  6.75746234  4.18196446
   3.88413524  1.58557816  3.88413524
   6.87307928  4.06634752  4.13445048
   4.13445048  4.06634752  6.87307928
   6.87307928  6.80497632  6.87307928

 use serial FFT for orbitals x direction half grid
 k-point   1 :   0.0000 0.0000 0.0000  plane waves:    2981

 maximum and minimum number of plane-waves per node :      2981     2981

 maximum number of plane-waves:      2981
 maximum index in each direction:
   IXMAX=   12   IYMAX=   12   IZMAX=   12
   IXMIN=    0   IYMIN=  -10   IZMIN=  -10

 serial   3D FFT for wavefunctions
 parallel 3D FFT for charge:
    minimum data exchange during FFTs selected (reduces bandwidth)

 Radii for the augmentation spheres in the non-local exchange
 for species   1 augmentation radius   1.405 (default was   1.124)
       energy cutoff for augmentation   1600.0
 Maximum index for augmentation-charges in exchange         2316
  SETUP_FOCK is finished

 Broyden mixing: mesh for mixing (old mesh)
   NGX = 25   NGY = 25   NGZ = 25
  (NGX  = 80   NGY  = 80   NGZ  = 80)
  gives a total of  15625 points

 initial charge density was supplied:
 charge density of overlapping atoms calculated
 number of electron      68.0000000 magnetization
 keeping initial charge density in first step

 Maximum index for augmentation-charges          494 (set IRDMAX)

--------------------------------------- Iteration      1(   1)  ---------------------------------------

 eigenvalue-minimisations  :  1152
 total energy-change (2. order) :-0.9312872E+04  (-0.5081474E+04)
 number of electron      68.0000000 magnetization
 augmentation part       68.0000000 magnetization

 Free energy of the ion-electron system (eV)
  alpha Z        PSCENC =        53.80049087
  Ewald energy   TEWEN  =     -1956.80383154
  -Hartree energ DENC   =      -104.48642838
  -exchange      EXHF   =         0.00000000
  -V(xc)+E(xc)   XCENC  =      -159.09713823
  PAW double counting   =      1502.55300543   -10163.79856844
  entropy T*S    EENTRO =         0.00000000
  eigenvalues    EBANDS =       -84.23780123
  atomic energy  EATOM  =      1599.19861851
  free energy    TOTEN  =     -9312.87165302 eV

  energy without entropy =    -9312.87165302  energy(sigma->0) =    -9312.87165302
  exchange ACFDT corr.  =         0.00000000  see jH, gK, PRB 81, 115126

[...]

 eigenvalue-minimisations  :   768
 total energy-change (2. order) : 0.8867075E+05  (-0.1251988E+05)
 number of electron      68.0000003 magnetization
 augmentation part       -3.5193936 magnetization

[...]

--------------------------------------- Iteration      1(  49)  ---------------------------------------

 eigenvalue-minimisations  :     0
 total energy-change (2. order) :-0.6058365E-06  (-0.3638374E-06)
 number of electron      68.0000004 magnetization
 augmentation part       -3.6927975 magnetization

 Free energy of the ion-electron system (eV)
  alpha Z        PSCENC =        53.80049087
  Ewald energy   TEWEN  =     -1956.80383154
  -Hartree energ DENC   =      -153.22071090
  -exchange      EXHF   =       512.89279132
  -V(xc)+E(xc)   XCENC  =         0.00000000
  PAW double counting   =      2280.42786556    -2284.42574324
  entropy T*S    EENTRO =         0.00000000
  eigenvalues    EBANDS =      -201.24090883
  atomic energy  EATOM  =      1599.19861851
  free energy    TOTEN  =      -149.37117753 eV

  energy without entropy =     -149.37117753  energy(sigma->0) =     -149.37117753
  exchange ACFDT corr.  =         0.00000000  see jH, gK, PRB 81, 115126

  average scaling for gradient   0.2291

 average (electrostatic) potential at core
  the test charge radii are     1.1243
  (the norm of the test charge is              1.0000)
       1 -50.0115       2 -49.6768       3 -49.9631       4 -49.9630       5 -49.9631
       6 -49.6826       7 -49.6826       8 -49.6827       9 -49.5899      10 -50.0807
      11 -50.0808      12 -50.0808      13 -49.4803      14 -49.6299      15 -49.6078
      16 -49.6077      17 -49.6077

 E-fermi :   3.6077     XC(G=0):   0.0000     alpha+bet :-12.0749

 Fermi energy:         3.6077365063

 k-point     1 :       0.0000    0.0000    0.0000
  band No.  band energies     occupation
      1     -13.5018      2.00000
      2     -10.2406      2.00000
      3      -9.8549      2.00000
      4      -9.8548      2.00000
      5      -9.6980      2.00000
      6      -8.7509      2.00000
      7      -7.2717      2.00000
      8      -7.2717      2.00000
      9      -7.2446      2.00000
     10      -6.9876      2.00000
     11      -6.9876      2.00000
     12      -6.5713      2.00000
     13      -5.7104      2.00000
     14      -5.4771      2.00000
     15      -5.4770      2.00000
     16      -1.1620      2.00000
     17      -1.1620      2.00000
     18      -1.1532      2.00000
     19      -0.2715      2.00000
     20      -0.2715      2.00000
     21      -0.1017      2.00000
     22       0.6463      2.00000
     23       1.0798      2.00000
     24       1.0798      2.00000
     25       1.3868      2.00000
     26       1.3868      2.00000
     27       1.6206      2.00000
     28       1.6206      2.00000
     29       1.6764      2.00000
     30       1.8410      2.00000
     31       2.7890      2.00000
     32       2.7890      2.00000
     33       2.9234      2.00000
     34       3.5618      2.00000
     35      10.8530      0.00000
     36      10.8530      0.00000
     37      11.2007      0.00000
     38      11.2007      0.00000
     39      11.9144      0.00000
     40      11.9144      0.00000
     41      11.9319      0.00000
     42      12.0801      0.00000
     43      12.3508      0.00000
     44      12.3508      0.00000
     45      12.8725      0.00000
     46      13.6270      0.00000
     47      13.8657      0.00000
     48      13.8657      0.00000
     49      14.0688      0.00000
     50      14.0688      0.00000
     51      14.4110      0.00000
     52      14.4149      0.00000
     53      14.4149      0.00000
     54      14.5026      0.00000
     55      16.0033      0.00000
     56      17.1774      0.00000
     57      18.3428      0.00000
     58      18.3428      0.00000
     59      18.8289      0.00000
     60      18.9567      0.00000
[...]
    370      63.6573      0.00000
    371      63.7977      0.00000
    372      63.8014      0.00000
    373      63.9748      0.00000
    374      64.3742      0.00000
    375      64.3761      0.00000
    376      64.4036      0.00000
    377      65.0676      0.00000
    378      65.0827      0.00000
    379      65.1214      0.00000
    380      65.3236      0.00000
    381      65.3368      0.00000
    382      65.5605      0.00000
    383      65.7567      0.00000
    384      65.7650      0.00000

 soft charge-density along one line, spin component           1
         0         1         2         3         4         5         6         7         8         9
 total charge-density along one line

------------------------ aborting loop because EDIFF is reached ----------------------------------------

 VOLUME and BASIS-vectors are now :
  energy-cutoff  :      400.00
  volume of cell :      327.28
      direct lattice vectors                 reciprocal lattice vectors
     5.469713400  5.469713400  0.000000000     0.091412468  0.091412468 -0.091412468
     0.000000000  5.469713400  5.469713400    -0.091412468  0.091412468  0.091412468
     5.469713400  0.000000000  5.469713400     0.091412468 -0.091412468  0.091412468

  length of vectors
     7.735342873  7.735342873  7.735342873     0.158331039  0.158331039  0.158331039

 FORCES acting on ions:
    Electron-Ion                     Ewald-Force                    Non-Local-Force
   -.242E+01 0.242E+01 -.242E+01   0.125E+01 -.125E+01 0.125E+01   -.236E+00 0.236E+00 -.236E+00
   0.576E+01 -.576E+01 0.576E+01   -.670E+01 0.670E+01 -.670E+01   0.129E+01 -.129E+01 0.129E+01
   -.489E+01 0.489E+01 0.212E+02   0.452E+01 -.452E+01 -.230E+02   0.425E-01 -.425E-01 0.256E+01
   0.212E+02 0.489E+01 -.489E+01   -.230E+02 -.452E+01 0.452E+01   0.256E+01 -.425E-01 0.425E-01
   -.489E+01 -.212E+02 -.489E+01   0.452E+01 0.230E+02 0.452E+01   0.425E-01 -.256E+01 0.425E-01
   -.820E+00 0.120E+02 -.820E+00   0.177E+01 -.128E+02 0.177E+01   -.105E+01 0.999E+00 -.105E+01
   -.120E+02 0.820E+00 -.819E+00   0.128E+02 -.177E+01 0.177E+01   -.999E+00 0.105E+01 -.105E+01
   -.820E+00 0.820E+00 -.120E+02   0.177E+01 -.177E+01 0.128E+02   -.105E+01 0.105E+01 -.999E+00
   0.113E+01 -.113E+01 0.113E+01   -.115E+01 0.115E+01 -.115E+01   0.238E+00 -.238E+00 0.238E+00
   0.125E+02 0.175E+02 0.125E+02   -.117E+02 -.187E+02 -.117E+02   0.487E-01 0.193E+01 0.487E-01
   -.175E+02 -.125E+02 0.125E+02   0.187E+02 0.117E+02 -.117E+02   -.193E+01 -.487E-01 0.487E-01
   0.125E+02 -.125E+02 -.175E+02   -.117E+02 0.117E+02 0.187E+02   0.487E-01 -.487E-01 -.193E+01
   -.132E+01 0.132E+01 -.132E+01   0.352E+00 -.352E+00 0.352E+00   0.727E+00 -.727E+00 0.727E+00
   -.104E+02 0.104E+02 -.104E+02   0.989E+01 -.989E+01 0.989E+01   0.425E+00 -.425E+00 0.425E+00
   -.137E+00 0.137E+00 0.554E+00   0.217E+00 -.217E+00 -.165E+01   0.819E-01 -.819E-01 0.115E+01
   0.555E+00 0.137E+00 -.137E+00   -.165E+01 -.217E+00 0.217E+00   0.115E+01 -.819E-01 0.819E-01
   -.137E+00 -.554E+00 -.137E+00   0.217E+00 0.165E+01 0.217E+00   0.819E-01 -.115E+01 0.819E-01
   -.162E+01 0.162E+01 -.162E+01   0.241E-14 0.200E-14 0.213E-13   0.147E+01 -.147E+01 0.147E+01

 POSITION                                       TOTAL-FORCE (eV/Angst)
      2.35776      3.11196      2.35776        -1.353172      1.353172     -1.353172
      5.27088      0.19883      5.27088         0.408514     -0.408514      0.408514
      2.77260      8.16683      5.45864        -0.289008      0.289008      1.128780
      5.45864      8.16683      2.77260         1.128780      0.289008     -0.289008
      2.77260      5.48078      2.77260        -0.289008     -1.128780     -0.289008
      8.16939     10.86653      8.16939        -0.251016      0.282833     -0.251016
      5.54261      8.23975      8.16939        -0.282833      0.251016     -0.251016
      8.16939      8.23975      5.54261        -0.251016      0.251016     -0.282833
      5.53894      5.40049      5.53894         0.265880     -0.265880      0.265880
      1.28699      1.19729      1.28699         0.768151      1.010782      0.768151
      4.27242      4.18272      1.28699        -1.010782     -0.768151      0.768151
      1.28699      4.18272      4.27242         0.768151     -0.768151     -1.010782
      4.18196      6.75746      4.18196        -0.159523      0.159523     -0.159523
      3.88414      1.58558      3.88414        -0.036045      0.036045     -0.036045
      6.87308      4.06635      4.13445         0.175471     -0.175471      0.231987
      4.13445      4.06635      6.87308         0.231987     -0.175471      0.175471
      6.87308      6.80498      6.87308         0.175471     -0.231987      0.175471
    total drift:                                0.000533     -0.000701      0.000522

  FREE ENERGIE OF THE ION-ELECTRON SYSTEM (eV)
  free  energy   TOTEN  =      -149.37117753 eV

  energy  without entropy=     -149.37117753  energy(sigma->0) =     -149.37117753

 writing wavefunctions