 vasp.6.3.0 20Jan22 (build Mar 03 2022 12:53:00) gamma-only

 executed on             LinuxIFC date 2022.04.16  03:31:40

 INCAR:
   ENCUT = 400
   SIGMA = 0.0001
   EDIFF = 1E-6

 POTCAR:    PAW Si_GW 04May2012
|           W    W    AA    RRRRR   N    N  II  N    N   GGGG   !!!           |
|           W    W   A  A   R    R  NN   N  II  NN   N  G    G  !!!           |
|           W    W  A    A  R    R  N N  N  II  N N  N  G       !!!           |
|           W WW W  AAAAAA  RRRRR   N  N N  II  N  N N  G  GGG   !            |
|           WW  WW  A    A  R   R   N   NN  II  N   NN  G    G                |
|           W    W  A    A  R    R  N    N  II  N    N   GGGG   !!!           |
|     For optimal performance we recommend to set                             |
|       NCORE = 2 up to number-of-cores-per-socket                            |
|     This setting can greatly improve the performance of VASP for DFT.       |
|     The default, NCORE=1 might be grossly inefficient on modern             |
|     multi-core architectures or massively parallel machines. Do your        |
|     Unfortunately you need to use the default for GW and RPA                |
|     calculations (for HF NCORE is supported but not extensively tested      |
|     yet).                                                                   |

 POTCAR:    PAW Si_GW 04May2012
   VRHFIN =Si: s2p2

   TITEL  = PAW Si_GW 04May2012
   POMASS =   28.085; ZVAL   =    4.000    mass and valenz
   ENMAX  =  245.345; ENMIN  =  184.009 eV

  PAW Si_GW 04May2012                   :

 POSCAR: cd:
  positions in direct lattice
  velocities in cartesian coordinates
 exchange correlation table for  LEXCH =        8
   RHO(1)=    0.500       N(1)  =     2000
   RHO(2)=  100.500       N(2)  =     4000

 ion  position               nearest neighbor table
   1  0.250  0.250  0.250-  10 2.42  11 2.42  12 2.42  14 2.42   7 2.76   8 2.76   3 2.76   4 2.76
                             5 2.76   6 2.76
   2  0.000  0.000  0.000-  11 2.32  12 2.32  14 2.32  10 2.32
   3  0.503  0.997  0.997-  13 2.36  15 2.36  10 2.40  11 2.40   1 2.76
   4  0.997  0.503  0.997-  13 2.36  16 2.36  10 2.40  12 2.40   1 2.76
   5  0.503  0.503  0.997-  13 2.36  17 2.36  11 2.40  12 2.40   1 2.76
   6  0.997  0.997  0.503-  15 2.36  16 2.36  10 2.40  14 2.40   1 2.76
   7  0.503  0.997  0.503-  15 2.36  17 2.36  11 2.40  14 2.40   1 2.76
   8  0.997  0.503  0.503-  16 2.36  17 2.36  12 2.40  14 2.40   1 2.76
   9  0.500  0.500  0.500-  13 2.35  15 2.35  16 2.35  17 2.35
  10  0.122  0.122  0.122-   2 2.32   3 2.40   4 2.40   6 2.40   1 2.42
  11  0.633  0.122  0.122-   2 2.32   5 2.40   7 2.40   3 2.40   1 2.42
  12  0.122  0.633  0.122-   2 2.32   5 2.40   8 2.40   4 2.40   1 2.42
  13  0.624  0.624  0.127-   9 2.35   4 2.36   5 2.36   3 2.36
  14  0.122  0.122  0.633-   2 2.32   7 2.40   8 2.40   6 2.40   1 2.42
  15  0.624  0.127  0.624-   9 2.35   6 2.36   7 2.36   3 2.36
  16  0.127  0.624  0.624-   9 2.35   6 2.36   8 2.36   4 2.36
  17  0.624  0.624  0.624-   9 2.35   7 2.36   8 2.36   5 2.36

  LATTYP: Found a face centered cubic cell.
 ALAT       =    10.9394268000

  Lattice vectors:

 A1 = (   5.4697134000,   5.4697134000,   0.0000000000)
 A2 = (   0.0000000000,   5.4697134000,   5.4697134000)
 A3 = (   5.4697134000,   0.0000000000,   5.4697134000)

Analysis of symmetry for initial positions (statically):
 Subroutine PRICEL returns:
 Original cell was already a primitive cell.

 Routine SETGRP: Setting up the symmetry group for a
 face centered cubic supercell.

 Subroutine GETGRP returns: Found 24 space group operations
 (whereof 24 operations were pure point group operations)
 out of a pool of 48 trial point group operations.

The static configuration has the point symmetry T_d .

Analysis of symmetry for dynamics (positions and initial velocities):
 Subroutine PRICEL returns:
 Original cell was already a primitive cell.

 Routine SETGRP: Setting up the symmetry group for a
 face centered cubic supercell.

 Subroutine GETGRP returns: Found 24 space group operations
 (whereof 24 operations were pure point group operations)
 out of a pool of 48 trial point group operations.

The dynamic configuration has the point symmetry T_d .

 Subroutine INISYM returns: Found 24 space group operations
 (whereof 24 operations are pure point group operations),
 and found     1 'primitive' translations

                                     Primitive cell

  volume of cell :     327.2832

  direct lattice vectors                    reciprocal lattice vectors
     5.469713400  5.469713400  0.000000000     0.091412468  0.091412468 -0.091412468
     0.000000000  5.469713400  5.469713400    -0.091412468  0.091412468  0.091412468
     5.469713400  0.000000000  5.469713400     0.091412468 -0.091412468  0.091412468

  length of vectors
     7.735342873  7.735342873  7.735342873     0.158331039  0.158331039  0.158331039

  position of ions in fractional coordinates (direct lattice)
     0.250000000  0.250000000  0.250000000
     0.000000000  0.000000000  0.000000000
     0.502557202  0.997442798  0.997442798
     0.997442798  0.502557202  0.997442798
     0.502557202  0.502557202  0.997442798
     0.997442798  0.997442798  0.502557202
     0.502557202  0.997442798  0.502557202
     0.997442798  0.502557202  0.502557202
     0.500000000  0.500000000  0.500000000
     0.122405329  0.122405329  0.122405329
     0.632784013  0.122405329  0.122405329
     0.122405329  0.632784013  0.122405329
     0.624211446  0.624211446  0.127365662
     0.122405329  0.122405329  0.632784013
     0.624211446  0.127365662  0.624211446
     0.127365662  0.624211446  0.624211446
     0.624211446  0.624211446  0.624211446

  ion indices of the primitive-cell ions
   primitive index   ion index
                 1           1
                 2           2
                 3           3
                 4           4
                 5           5
                 6           6
                 7           7
                 8           8
                 9           9
                10          10
                11          11
                12          12
                13          13
                14          14
                15          15
                16          16
                17          17

 KPOINTS: Automatic mesh

Automatic generation of k-mesh.
 Grid dimensions read from file:
 generate k-points for:    1    1    1

 Generating k-lattice:

  Cartesian coordinates                     Fractional coordinates (reciprocal lattice)
     0.091412468  0.091412468 -0.091412468     1.000000000  0.000000000  0.000000000
    -0.091412468  0.091412468  0.091412468     0.000000000  1.000000000 -0.000000000
     0.091412468 -0.091412468  0.091412468    -0.000000000 -0.000000000  1.000000000

  Length of vectors
     0.158331039  0.158331039  0.158331039

  Shift w.r.t. Gamma in fractional coordinates (k-lattice)
     0.000000000  0.000000000  0.000000000

 Subroutine IBZKPT returns following result:

 Found      1 irreducible k-points:

 Following reciprocal coordinates:
            Coordinates               Weight
  0.000000  0.000000  0.000000      1.000000

 Following cartesian coordinates:
            Coordinates               Weight
  0.000000  0.000000  0.000000      1.000000

 SYSTEM =  unknown system
 POSCAR =  cd:

 Startparameter for this run:
   NWRITE =      2    write-flag & timer
   PREC   = normal    normal or accurate (medium, high low for compatibility)
   ISTART =      0    job   : 0-new  1-cont  2-samecut
   ICHARG =      2    charge: 1-file 2-atom 10-const
   ISPIN  =      1    spin polarized calculation?
   LNONCOLLINEAR =      F non collinear calculations
   LSORBIT =      F    spin-orbit coupling
   INIWAV =      1    electr: 0-lowe 1-rand  2-diag
   LASPH  =      F    aspherical Exc in radial PAW
 Electronic Relaxation 1
   ENCUT  =  400.0 eV  29.40 Ry    5.42 a.u.  12.61 12.61 12.61*2*pi/ulx,y,z
   ENINI  =  400.0     initial cutoff
   ENAUG  =  413.0 eV  augmentation charge cutoff
   NELM   =     60;   NELMIN=  2; NELMDL= -5     # of ELM steps
   EDIFF  = 0.1E-05   stopping-criterion for ELM
   LREAL  =      F    real-space projection
   NLSPLINE    = F    spline interpolate recip. space projectors
   LCOMPAT=      F    compatible to vasp.4.4
   GGA_COMPAT  = T    GGA compatible to vasp.4.4-vasp.4.6
   LMAXPAW     = -100 max onsite density
   LMAXMIX     =    2 max onsite mixed and CHGCAR
   VOSKOWN=      0    Vosko Wilk Nusair interpolation
   ROPT   =    0.00000
 Ionic relaxation
   EDIFFG = 0.1E-04   stopping-criterion for IOM
   NSW    =      0    number of steps for IOM
   NBLOCK =      1;   KBLOCK =      1    inner block; outer block
   IBRION =     -1    ionic relax: 0-MD 1-quasi-New 2-CG
   NFREE  =      0    steps in history (QN), initial steepest desc. (CG)
   ISIF   =      2    stress and relaxation
   IWAVPR =     10    prediction:  0-non 1-charg 2-wave 3-comb
   ISYM   =      2    0-nonsym 1-usesym 2-fastsym
   LCORR  =      T    Harris-Foulkes like correction to forces

   POTIM  = 0.5000    time-step for ionic-motion
   TEIN   =    0.0    initial temperature
   TEBEG  =    0.0;   TEEND  =   0.0 temperature during run
   SMASS  =  -3.00    Nose mass-parameter (am)
   estimated Nose-frequenzy (Omega)   =  0.10E-29 period in steps = 0.13E+47 mass=  -0.137E-26a.u.
   SCALEE = 1.0000    scale energy and forces
   NPACO  =    256;   APACO  = 10.0  distance and # of slots for P.C.
   PSTRESS=    0.0 pullay stress

  Mass of Ions in am
   POMASS =  28.09
  Ionic Valenz
   ZVAL   =   4.00
  Atomic Wigner-Seitz radii
  virtual crystal weights
   VCA    =   1.00
   NELECT =      68.0000    total number of electrons
   NUPDOWN=      -1.0000    fix difference up-down

 DOS related values:
   EMIN   =  10.00;   EMAX   =-10.00  energy-range for DOS
   EFERMI =   0.00
   ISMEAR =     1;   SIGMA  =   0.00  broadening in eV -4-tet -1-fermi 0-gaus

 Electronic relaxation 2 (details)
   IALGO  =     38    algorithm
   LDIAG  =      T    sub-space diagonalisation (order eigenvalues)
   LSUBROT=      F    optimize rotation matrix (better conditioning)
   TURBO    =      0    0=normal 1=particle mesh
   IRESTART =      0    0=no restart 2=restart with 2 vectors
   NREBOOT  =      0    no. of reboots
   NMIN     =      0    reboot dimension
   EREF     =   0.00    reference energy to select bands
   IMIX   =      4    mixing-type and parameters
     AMIX     =   0.40;   BMIX     =  1.00
     AMIX_MAG =   1.60;   BMIX_MAG =  1.00
     AMIN     =   0.10
     WC   =   100.;   INIMIX=   1;  MIXPRE=   1;  MAXMIX= -45

 Intra band minimization:
   WEIMIN = 0.0000     energy-eigenvalue tresh-hold
   EBREAK =  0.65E-09  absolut break condition
   DEPER  =   0.30     relativ break condition

   TIME   =   0.40     timestep for ELM

  volume/ion in A,a.u.               =      19.25       129.92
  Fermi-wavevector in a.u.,A,eV,Ry     =   0.969624  1.832323 12.791792  0.940170
  Thomas-Fermi vector in A             =   2.099692

 Write flags
   LWAVE        =      T    write WAVECAR
   LDOWNSAMPLE  =      F    k-point downsampling of WAVECAR
   LCHARG       =      T    write CHGCAR
[...]
   CSHIFT  =0.1000    complex shift for real part using Kramers Kronig
   OMEGAMAX=  -1.0    maximum frequency
   DEG_THRESHOLD= 0.2000000E-02 threshold for treating states as degnerate
   RTIME   =   -0.100 relaxation time in fs
  (WPLASMAI=    0.000 imaginary part of plasma frequency in eV, 0.658/RTIME)
   DFIELD  = 0.0000000 0.0000000 0.0000000 field for delta impulse in time

  Optional k-point grid parameters
   LKPOINTS_OPT  =     F    use optional k-point grid
   KPOINTS_OPT_MODE=     1    mode for optional k-point grid

 Orbital magnetization related:
   ORBITALMAG=     F  switch on orbital magnetization
   LCHIMAG   =     F  perturbation theory with respect to B field
   DQ        =  0.001000  dq finite difference perturbation B field
   LLRAUG    =     F  two centre corrections for induced B field

 Static calculation
 charge density and potential will be updated during run
 non-spin polarized calculation
 Variant of blocked Davidson
 Davidson routine will perform the subspace rotation
 perform sub-space diagonalisation
    after iterative eigenvector-optimisation
 modified Broyden-mixing scheme, WC =      100.0
 initial mixing is a Kerker type mixing with AMIX =  0.4000 and BMIX =      1.0000
 Hartree-type preconditioning will be used
 using additional bands          350
 reciprocal scheme for non local part
 use partial core corrections
 calculate Harris-corrections to forces
   (improved forces if not selfconsistent)
 use gradient corrections
 use of overlap-Matrix (Vanderbilt PP)
 Methfessel and Paxton  Order N= 1 SIGMA  =   0.00

  energy-cutoff  :      400.00
  volume of cell :      327.28
      direct lattice vectors                 reciprocal lattice vectors
     5.469713400  5.469713400  0.000000000     0.091412468  0.091412468 -0.091412468
     0.000000000  5.469713400  5.469713400    -0.091412468  0.091412468  0.091412468
     5.469713400  0.000000000  5.469713400     0.091412468 -0.091412468  0.091412468

[...]

 k-points in units of 2pi/SCALE and weight: Automatic mesh
   0.00000000  0.00000000  0.00000000       1.000

 k-points in reciprocal lattice and weights: Automatic mesh
   0.00000000  0.00000000  0.00000000       1.000

 position of ions in fractional coordinates (direct lattice)
   0.25000000  0.25000000  0.25000000
   0.00000000  0.00000000  0.00000000
   0.50255720  0.99744280  0.99744280
   0.99744280  0.50255720  0.99744280
   0.50255720  0.50255720  0.99744280
   0.99744280  0.99744280  0.50255720
   0.50255720  0.99744280  0.50255720
   0.99744280  0.50255720  0.50255720
   0.50000000  0.50000000  0.50000000
   0.12240533  0.12240533  0.12240533
   0.63278401  0.12240533  0.12240533
   0.12240533  0.63278401  0.12240533
   0.62421145  0.62421145  0.12736566
   0.12240533  0.12240533  0.63278401
   0.62421145  0.12736566  0.62421145
   0.12736566  0.62421145  0.62421145
   0.62421145  0.62421145  0.62421145

 position of ions in cartesian coordinates  (Angst):
   2.73485670  2.73485670  2.73485670
   0.00000000  0.00000000  0.00000000
   8.20457010  8.20457010 10.91145248
  10.91145248  8.20457010  8.20457010
   8.20457010  5.49768772  8.20457010
   8.20457010 10.91145248  8.20457010
   5.49768772  8.20457010  8.20457010
   8.20457010  8.20457010  5.49768772
   5.46971340  5.46971340  5.46971340
   1.33904414  1.33904414  1.33904414
   4.13066926  4.13066926  1.33904414
   1.33904414  4.13066926  4.13066926
   4.11091138  6.82851542  4.11091138
   4.13066926  1.33904414  4.13066926
   6.82851542  4.11091138  4.11091138
   4.11091138  4.11091138  6.82851542
   6.82851542  6.82851542  6.82851542

 use serial FFT for orbitals x direction half grid
 k-point   1 :   0.0000 0.0000 0.0000  plane waves:    2981

 maximum and minimum number of plane-waves per node :      2981     2981

 maximum number of plane-waves:      2981
 maximum index in each direction:
   IXMAX=   12   IYMAX=   12   IZMAX=   12
   IXMIN=    0   IYMIN=  -10   IZMIN=  -10

 serial   3D FFT for wavefunctions
 parallel 3D FFT for charge:
    minimum data exchange during FFTs selected (reduces bandwidth)

 Broyden mixing: mesh for mixing (old mesh)
   NGX = 25   NGY = 25   NGZ = 25
  (NGX  = 80   NGY  = 80   NGZ  = 80)
  gives a total of  15625 points

 initial charge density was supplied:
 charge density of overlapping atoms calculated
 number of electron      68.0000000 magnetization
 keeping initial charge density in first step

 Maximum index for augmentation-charges          499 (set IRDMAX)

 First call to EWALD:  gamma=   0.257
 Maximum number of real-space cells 3x 3x 3
 Maximum number of reciprocal cells 3x 3x 3

--------------------------------------- Iteration      1(   1)  ---------------------------------------

 eigenvalue-minimisations  :  1152
 total energy-change (2. order) :-0.5511955E+02  (-0.3266296E+04)
 number of electron      68.0000000 magnetization
 augmentation part       68.0000000 magnetization

 Free energy of the ion-electron system (eV)
  alpha Z        PSCENC =        53.80049087
  Ewald energy   TEWEN  =     -1952.63207081
  -Hartree energ DENC   =      -107.60348603
  -exchange      EXHF   =         0.00000000
  -V(xc)+E(xc)   XCENC  =      -158.99792024
  PAW double counting   =      1502.55300543    -1199.01880071
  entropy T*S    EENTRO =         0.00000000
  eigenvalues    EBANDS =        54.66154522
  atomic energy  EATOM  =      1752.11768588
  Solvation  Ediel_sol  =         0.00000000
  free energy    TOTEN  =       -55.11955039 eV

  energy without entropy =      -55.11955039  energy(sigma->0) =      -55.11955039

[...]

 Broyden mixing:
  rms(total) = 0.10180E+01    rms(broyden)= 0.10180E+01
  rms(prec ) = 0.18301E+01
  weight for this iteration     100.00

[...]

 eigenvalue-minimisations  :  1536
 total energy-change (2. order) : 0.2025819E+01  (-0.3323028E+00)
 number of electron      67.9999988 magnetization
 augmentation part       -3.9072373 magnetization

[...]

 eigenvalues of (default mixing * dielectric matrix)
  average eigenvalue GAMMA=   2.3331
  2.3331

[...]

 eigenvalue-minimisations  :  1536
 total energy-change (2. order) : 0.1342479E-01  (-0.1800949E-01)
 number of electron      67.9999988 magnetization
 augmentation part       -3.8455194 magnetization

[...]

 Broyden mixing:
  rms(total) = 0.12288E-03    rms(broyden)= 0.12288E-03
  rms(prec ) = 0.24546E-03
  weight for this iteration     100.00

 eigenvalues of (default mixing * dielectric matrix)
  average eigenvalue GAMMA=   1.7429
  3.2557  2.5959  2.1712  1.8148  1.2910  0.8430  0.9857  0.9857

[...]

--------------------------------------- Iteration      1(  14)  ---------------------------------------

 eigenvalue-minimisations  :  1536
 total energy-change (2. order) :-0.2627125E-06  (-0.3633450E-07)
 number of electron      67.9999988 magnetization
 augmentation part       -3.8487065 magnetization

 Free energy of the ion-electron system (eV)
  alpha Z        PSCENC =        53.80049087
  Ewald energy   TEWEN  =     -1952.63207081
  -Hartree energ DENC   =      -149.88574054
  -exchange      EXHF   =         0.00000000
  -V(xc)+E(xc)   XCENC  =      -152.47371431
  PAW double counting   =      2228.34468786    -1927.36417264
  entropy T*S    EENTRO =        -0.00007467
  eigenvalues    EBANDS =        76.67718238
  atomic energy  EATOM  =      1752.11768588
  Solvation  Ediel_sol  =         0.00000000
  free energy    TOTEN  =       -71.41572598 eV

  energy without entropy =      -71.41565131  energy(sigma->0) =      -71.41570109

 average (electrostatic) potential at core
  the test charge radii are     1.1243
  (the norm of the test charge is              1.0000)
       1 -67.0338       2 -66.2907       3 -66.5971       4 -66.5971       5 -66.5971
       6 -66.5971       7 -66.5971       8 -66.5971       9 -66.2948      10 -66.5169
      11 -66.5169      12 -66.5169      13 -66.3809      14 -66.5169      15 -66.3809
      16 -66.3809      17 -66.3809

 E-fermi :   6.1790     XC(G=0):  -9.4762     alpha+bet :-12.0749

 Fermi energy:         6.1789662151

 k-point     1 :       0.0000    0.0000    0.0000
  band No.  band energies     occupation
      1      -6.5222      2.00000
      2      -4.0834      2.00000
      3      -3.9059      2.00000
      4      -3.9059      2.00000
      5      -3.9059      2.00000
      6      -3.1866      2.00000
      7      -2.1059      2.00000
      8      -2.1059      2.00000
      9      -2.1059      2.00000
     10      -1.9145      2.00000
     11      -1.9145      2.00000
     12      -1.5887      2.00000
     13      -1.1128      2.00000
     14      -1.1128      2.00000
     15      -1.1128      2.00000
     16       2.2492      2.00000
     17       2.2492      2.00000
     18       2.2492      2.00000
     19       3.0757      2.00000
     20       3.0757      2.00000
     21       3.0757      2.00000
     22       3.2277      2.00000
     23       4.4375      2.00000
     24       4.4375      2.00000
     25       4.4375      2.00000
     26       4.4728      2.00000
     27       4.4728      2.00000
     28       4.7210      2.00000
     29       4.7210      2.00000
     30       4.7210      2.00000
     31       5.7065      2.00000
     32       5.7065      2.00000
     33       5.7065      2.00000
     34       6.1790      0.66742
     35       6.1790      0.66629
     36       6.1790      0.66629
     37       6.4940      0.00000
     38       6.4940      0.00000
     39       6.8702      0.00000
     40       6.8702      0.00000
     41       6.8702      0.00000
     42       7.1924      0.00000
     43       7.6098      0.00000
     44       7.6098      0.00000
     45       7.6098      0.00000
     46       8.5674      0.00000
     47       8.5674      0.00000
     48       8.5674      0.00000
     49       8.8816      0.00000
     50       8.8816      0.00000
     51       8.9310      0.00000
     52       9.1703      0.00000
     53       9.1703      0.00000
     54       9.1703      0.00000
     55      11.2707      0.00000
     56      12.8987      0.00000
     57      12.8987      0.00000
     58      12.8987      0.00000
     59      13.0850      0.00000
     60      13.0850      0.00000
[...]
    370      55.2734      0.00000
    371      55.2734      0.00000
    372      55.6047      0.00000
    373      55.7150      0.00000
    374      55.7150      0.00000
    375      55.7150      0.00000
    376      55.7383      0.00000
    377      55.7383      0.00000
    378      56.3268      0.00000
    379      56.7722      0.00000
    380      56.7722      0.00000
    381      56.7723      0.00000
    382      57.4253      0.00000
    383      57.4253      0.00000
    384      57.4253      0.00000

 soft charge-density along one line, spin component           1
         0         1         2         3         4         5         6         7         8         9
 total charge-density along one line

------------------------ aborting loop because EDIFF is reached ----------------------------------------

  FORCE on cell =-STRESS in cart. coord.  units (eV):
  Direction    XX          YY          ZZ          XY          YZ          ZX
  Alpha Z    53.80049    53.80049    53.80049
  Ewald    -650.87960  -650.87960  -650.87960     0.00000     0.00000     0.00000
  Hartree    49.96202    49.96202    49.96202    -0.00000    -0.00000    -0.00000
  E(xc)    -216.10202  -216.10202  -216.10202    -0.00001    -0.00001    -0.00001
  Local    -233.33055  -233.33055  -233.33055     0.00006     0.00006     0.00006
  n-local   591.91577   591.91577   591.91577     0.00084     0.00084     0.00084
  augment   -89.59134   -89.59134   -89.59134    -0.00008    -0.00008    -0.00008
  Kinetic   509.95728   509.95728   509.95728     0.00133     0.00133     0.00133
  Fock        0.00000     0.00000     0.00000     0.00000     0.00000     0.00000
  Total      15.73204    15.73204    15.73204    -0.00000     0.00000    -0.00000
  in kB      77.01441    77.01441    77.01441    -0.00000     0.00000    -0.00000

 VOLUME and BASIS-vectors are now :
  energy-cutoff  :      400.00
  volume of cell :      327.28
      direct lattice vectors                 reciprocal lattice vectors
     5.469713400  5.469713400  0.000000000     0.091412468  0.091412468 -0.091412468
     0.000000000  5.469713400  5.469713400    -0.091412468  0.091412468  0.091412468
     5.469713400  0.000000000  5.469713400     0.091412468 -0.091412468  0.091412468

  length of vectors
     7.735342873  7.735342873  7.735342873     0.158331039  0.158331039  0.158331039

 FORCES acting on ions
    electron-ion (+dipol)            ewald-force                    non-local-force                 convergence-correction
   -.310E-06 -.309E-06 -.310E-06   -.666E-15 0.251E-13 -.324E-13   -.132E-19 0.134E-20 0.201E-20   -.139E-09 -.139E-09 -.139E-09
   0.118E-05 0.124E-05 0.118E-05   -.400E-13 -.271E-13 -.382E-13   0.215E-19 0.170E-19 0.798E-20   -.207E-09 -.207E-09 -.207E-09
   -.799E-06 -.737E-06 0.175E+02   0.284E-13 0.355E-13 -.193E+02   0.174E-16 0.197E-16 0.282E+01   0.153E-09 0.153E-09 -.182E-03
   0.175E+02 -.737E-06 -.799E-06   -.193E+02 0.275E-13 0.142E-13   0.282E+01 0.216E-16 0.194E-16   -.182E-03 0.153E-09 0.153E-09
   0.237E-05 -.175E+02 0.237E-05   0.711E-14 0.193E+02 -.426E-13   0.335E-16 -.282E+01 0.196E-16   -.513E-09 0.182E-03 -.513E-09
   -.827E-06 0.175E+02 -.827E-06   0.153E-13 -.193E+02 0.175E-13   0.110E-16 0.282E+01 0.318E-16   0.153E-09 -.182E-03 0.153E-09
   -.175E+02 0.236E-05 0.233E-05   0.193E+02 -.107E-13 -.178E-13   -.282E+01 0.799E-18 0.103E-16   0.182E-03 -.513E-09 -.513E-09
   0.233E-05 0.236E-05 -.175E+02   -.178E-13 0.000E+00 0.193E+02   0.258E-16 0.241E-16 -.282E+01   -.513E-09 -.513E-09 0.182E-03
   0.105E-05 0.110E-05 0.105E-05   0.178E-13 0.142E-13 0.249E-13   0.475E-21 0.573E-21 -.154E-20   -.144E-09 -.144E-09 -.144E-09
   0.162E+02 0.162E+02 0.162E+02   -.152E+02 -.152E+02 -.152E+02   -.160E+00 -.160E+00 -.160E+00   -.515E-04 -.515E-04 -.515E-04
   -.162E+02 -.162E+02 0.162E+02   0.152E+02 0.152E+02 -.152E+02   0.160E+00 0.160E+00 -.160E+00   0.515E-04 0.515E-04 -.515E-04
   0.162E+02 -.162E+02 -.162E+02   -.152E+02 0.152E+02 0.152E+02   -.160E+00 0.160E+00 0.160E+00   -.515E-04 0.515E-04 0.515E-04
   -.652E+00 0.652E+00 -.652E+00   -.770E+00 0.770E+00 -.770E+00   0.131E+01 -.131E+01 0.131E+01   0.119E-04 -.119E-04 0.119E-04
   -.162E+02 0.162E+02 -.162E+02   0.152E+02 -.152E+02 0.152E+02   0.160E+00 -.160E+00 0.160E+00   0.515E-04 -.515E-04 0.515E-04
   0.652E+00 -.652E+00 -.652E+00   0.770E+00 -.770E+00 -.770E+00   -.131E+01 0.131E+01 0.131E+01   -.119E-04 0.119E-04 0.119E-04
   -.652E+00 -.652E+00 0.652E+00   -.770E+00 -.770E+00 0.770E+00   0.131E+01 0.131E+01 -.131E+01   0.119E-04 0.119E-04 -.119E-04
   0.652E+00 0.652E+00 0.652E+00   0.770E+00 0.770E+00 0.770E+00   -.131E+01 -.131E+01 -.131E+01   -.119E-04 -.119E-04 -.119E-04
   0.187E-05 0.190E-05 0.187E-05   -.139E-13 -.124E-13 0.216E-13   -.222E-15 0.111E-14 0.666E-15   -.289E-09 -.289E-09 -.289E-09

 POSITION                                       TOTAL-FORCE (eV/Angst)
      2.73486      2.73486      2.73486        -0.000000      0.000000     -0.000000
      0.00000      0.00000      0.00000        -0.000000     -0.000000     -0.000000
      8.20457      8.20457     10.91145        -0.000000     -0.000000      1.077125
     10.91145      8.20457      8.20457         1.077125     -0.000000     -0.000000
      8.20457      5.49769      8.20457        -0.000000     -1.077125     -0.000000
      8.20457     10.91145      8.20457        -0.000000      1.077125     -0.000000
      5.49769      8.20457      8.20457        -1.077125     -0.000000     -0.000000
      8.20457      8.20457      5.49769        -0.000000      0.000000     -1.077125
      5.46971      5.46971      5.46971        -0.000000      0.000000     -0.000000
      1.33904      1.33904      1.33904         0.762969      0.762969      0.762969
      4.13067      4.13067      1.33904        -0.762969     -0.762969      0.762969
      1.33904      4.13067      4.13067         0.762969     -0.762969     -0.762969
      4.11091      6.82852      4.11091        -0.107312      0.107312     -0.107312
      4.13067      1.33904      4.13067        -0.762969      0.762969     -0.762969
      6.82852      4.11091      4.11091         0.107312     -0.107312     -0.107312
      4.11091      4.11091      6.82852        -0.107312     -0.107312      0.107312
      6.82852      6.82852      6.82852         0.107312      0.107312      0.107312
    total drift:                                0.000002      0.000002      0.000002

  FREE ENERGIE OF THE ION-ELECTRON SYSTEM (eV)
  free  energy   TOTEN  =       -71.41572598 eV

  energy  without entropy=      -71.41565131  energy(sigma->0) =      -71.41570109

 writing wavefunctions