 vasp.6.3.0 20Jan22 (build Mar 03 2022 12:53:00) gamma-only

 executed on             LinuxIFC date 2022.03.17  05:26:52

 INCAR:
   ENCUT = 400
   SIGMA = 0.0001
   EDIFF = 1E-6

 POTCAR:    PAW Si_GW 04May2012
|           W    W    AA    RRRRR   N    N  II  N    N   GGGG   !!!           |
|           W    W   A  A   R    R  NN   N  II  NN   N  G    G  !!!           |
|           W    W  A    A  R    R  N N  N  II  N N  N  G       !!!           |
|           W WW W  AAAAAA  RRRRR   N  N N  II  N  N N  G  GGG   !            |
|           WW  WW  A    A  R   R   N   NN  II  N   NN  G    G                |
|           W    W  A    A  R    R  N    N  II  N    N   GGGG   !!!           |
|     For optimal performance we recommend to set                             |
|       NCORE = 2 up to number-of-cores-per-socket                            |
|     This setting can greatly improve the performance of VASP for DFT.       |
|     The default, NCORE=1 might be grossly inefficient on modern             |
|     multi-core architectures or massively parallel machines. Do your        |
|     Unfortunately you need to use the default for GW and RPA                |
|     calculations (for HF NCORE is supported but not extensively tested      |
|     yet).                                                                   |

 POTCAR:    PAW Si_GW 04May2012
   VRHFIN =Si: s2p2

   TITEL  = PAW Si_GW 04May2012
   POMASS =   28.085; ZVAL   =    4.000    mass and valenz
   ENMAX  =  245.345; ENMIN  =  184.009 eV

  PAW Si_GW 04May2012                   :

 POSCAR: cd:
  positions in direct lattice
  velocities in cartesian coordinates
 exchange correlation table for  LEXCH =        8
   RHO(1)=    0.500       N(1)  =     2000
   RHO(2)=  100.500       N(2)  =     4000

 ion  position               nearest neighbor table
   1  0.198  0.892  0.211-   7 2.32   2 2.47   3 2.48   4 2.48  12 2.81  13 2.82  16 2.83
   2  0.198  0.211  0.892-   5 2.32   1 2.47   3 2.48   4 2.48  14 2.81  15 2.82  16 2.83
   3  0.998  0.988  0.988-  11 2.36  12 2.37  14 2.37   2 2.48   1 2.48
   4  0.525  0.988  0.988-  11 2.36  15 2.37  13 2.37   2 2.48   1 2.48
   5  0.994  0.492  0.020-   2 2.32  12 2.36  13 2.36  16 2.36
   6  0.503  0.498  0.996-  12 2.35  13 2.35  11 2.35  17 2.36
   7  0.994  0.020  0.492-   1 2.32  14 2.36  15 2.36  16 2.36
   8  0.503  0.996  0.498-  14 2.35  15 2.35  11 2.35  17 2.36
   9  0.001  0.509  0.509-  17 2.37  14 2.37  12 2.37  16 2.39
  10  0.480  0.509  0.509-  17 2.37  15 2.37  13 2.37  16 2.39
  11  0.624  0.125  0.125-   6 2.35   8 2.35   3 2.36   4 2.36
  12  0.130  0.614  0.135-   6 2.35   5 2.36   9 2.37   3 2.37   1 2.81
  13  0.620  0.614  0.135-   6 2.35   5 2.36  10 2.37   4 2.37   1 2.82
  14  0.130  0.135  0.614-   8 2.35   7 2.36   9 2.37   3 2.37   2 2.81
  15  0.620  0.135  0.614-   8 2.35   7 2.36  10 2.37   4 2.37   2 2.82
  16  0.103  0.647  0.647-   7 2.36   5 2.36   9 2.39  10 2.39   1 2.83   2 2.83
  17  0.628  0.622  0.622-   6 2.36   8 2.36  10 2.37   9 2.37

  LATTYP: Found a face centered cubic cell.
 ALAT       =    10.9394268000

  Lattice vectors:

 A1 = (   5.4697134000,   5.4697134000,   0.0000000000)
 A2 = (   0.0000000000,   5.4697134000,   5.4697134000)
 A3 = (   5.4697134000,   0.0000000000,   5.4697134000)

Analysis of symmetry for initial positions (statically):
 Subroutine PRICEL returns:
 Original cell was already a primitive cell.

 Routine SETGRP: Setting up the symmetry group for a
 face centered cubic supercell.

 Subroutine GETGRP returns: Found  2 space group operations
 (whereof  2 operations were pure point group operations)
 out of a pool of 48 trial point group operations.

The static configuration has the point symmetry C_1h.

Analysis of symmetry for dynamics (positions and initial velocities):
 Subroutine PRICEL returns:
 Original cell was already a primitive cell.

 Routine SETGRP: Setting up the symmetry group for a
 face centered cubic supercell.

 Subroutine GETGRP returns: Found  2 space group operations
 (whereof  2 operations were pure point group operations)
 out of a pool of 48 trial point group operations.

The dynamic configuration has the point symmetry C_1h.

 Subroutine INISYM returns: Found  2 space group operations
 (whereof  2 operations are pure point group operations),
 and found     1 'primitive' translations

                                     Primitive cell

  volume of cell :     327.2832

  direct lattice vectors                    reciprocal lattice vectors
     5.469713400  5.469713400  0.000000000     0.091412468  0.091412468 -0.091412468
     0.000000000  5.469713400  5.469713400    -0.091412468  0.091412468  0.091412468
     5.469713400  0.000000000  5.469713400     0.091412468 -0.091412468  0.091412468

  length of vectors
     7.735342873  7.735342873  7.735342873     0.158331039  0.158331039  0.158331039

  position of ions in fractional coordinates (direct lattice)
     0.198285643  0.891589348  0.210613020
     0.198285643  0.210613020  0.891589348
     0.997890964  0.987789370  0.987789370
     0.525314110  0.987807833  0.987807833
     0.993644526  0.491926461  0.019628202
     0.502719025  0.497636860  0.995727484
     0.993644526  0.019628202  0.491926461
     0.502719025  0.995727484  0.497636860
     0.001405266  0.508714001  0.508714001
     0.480057771  0.508698697  0.508698697
     0.624496803  0.124920229  0.124920229
     0.130456169  0.614161343  0.134590713
     0.619632724  0.614146016  0.134572489
     0.130456169  0.134590713  0.614161343
     0.619632724  0.134572489  0.614146016
     0.102684857  0.646755533  0.646755533
     0.627674055  0.621722401  0.621722401

  ion indices of the primitive-cell ions
   primitive index   ion index
                 1           1
                 2           2
                 3           3
                 4           4
                 5           5
                 6           6
                 7           7
                 8           8
                 9           9
                10          10
                11          11
                12          12
                13          13
                14          14
                15          15
                16          16
                17          17

 KPOINTS: Automatic mesh

Automatic generation of k-mesh.
 Grid dimensions read from file:
 generate k-points for:    1    1    1

 Generating k-lattice:

  Cartesian coordinates                     Fractional coordinates (reciprocal lattice)
     0.091412468  0.091412468 -0.091412468     1.000000000  0.000000000  0.000000000
    -0.091412468  0.091412468  0.091412468     0.000000000  1.000000000 -0.000000000
     0.091412468 -0.091412468  0.091412468    -0.000000000 -0.000000000  1.000000000

  Length of vectors
     0.158331039  0.158331039  0.158331039

  Shift w.r.t. Gamma in fractional coordinates (k-lattice)
     0.000000000  0.000000000  0.000000000

 Subroutine IBZKPT returns following result:

 Found      1 irreducible k-points:

 Following reciprocal coordinates:
            Coordinates               Weight
  0.000000  0.000000  0.000000      1.000000

 Following cartesian coordinates:
            Coordinates               Weight
  0.000000  0.000000  0.000000      1.000000

 SYSTEM =  unknown system
 POSCAR =  cd:

 Startparameter for this run:
   NWRITE =      2    write-flag & timer
   PREC   = normal    normal or accurate (medium, high low for compatibility)
   ISTART =      0    job   : 0-new  1-cont  2-samecut
   ICHARG =      2    charge: 1-file 2-atom 10-const
   ISPIN  =      1    spin polarized calculation?
   LNONCOLLINEAR =      F non collinear calculations
   LSORBIT =      F    spin-orbit coupling
   INIWAV =      1    electr: 0-lowe 1-rand  2-diag
   LASPH  =      F    aspherical Exc in radial PAW
 Electronic Relaxation 1
   ENCUT  =  400.0 eV  29.40 Ry    5.42 a.u.  12.61 12.61 12.61*2*pi/ulx,y,z
   ENINI  =  400.0     initial cutoff
   ENAUG  =  413.0 eV  augmentation charge cutoff
   NELM   =     60;   NELMIN=  2; NELMDL= -5     # of ELM steps
   EDIFF  = 0.1E-05   stopping-criterion for ELM
   LREAL  =      F    real-space projection
   NLSPLINE    = F    spline interpolate recip. space projectors
   LCOMPAT=      F    compatible to vasp.4.4
   GGA_COMPAT  = T    GGA compatible to vasp.4.4-vasp.4.6
   LMAXPAW     = -100 max onsite density
   LMAXMIX     =    2 max onsite mixed and CHGCAR
   VOSKOWN=      0    Vosko Wilk Nusair interpolation
   ROPT   =    0.00000
 Ionic relaxation
   EDIFFG = 0.1E-04   stopping-criterion for IOM
   NSW    =      0    number of steps for IOM
   NBLOCK =      1;   KBLOCK =      1    inner block; outer block
   IBRION =     -1    ionic relax: 0-MD 1-quasi-New 2-CG
   NFREE  =      0    steps in history (QN), initial steepest desc. (CG)
   ISIF   =      2    stress and relaxation
   IWAVPR =     10    prediction:  0-non 1-charg 2-wave 3-comb
   ISYM   =      2    0-nonsym 1-usesym 2-fastsym
   LCORR  =      T    Harris-Foulkes like correction to forces

   POTIM  = 0.5000    time-step for ionic-motion
   TEIN   =    0.0    initial temperature
   TEBEG  =    0.0;   TEEND  =   0.0 temperature during run
   SMASS  =  -3.00    Nose mass-parameter (am)
   estimated Nose-frequenzy (Omega)   =  0.10E-29 period in steps = 0.13E+47 mass=  -0.137E-26a.u.
   SCALEE = 1.0000    scale energy and forces
   NPACO  =    256;   APACO  = 10.0  distance and # of slots for P.C.
   PSTRESS=    0.0 pullay stress

  Mass of Ions in am
   POMASS =  28.09
  Ionic Valenz
   ZVAL   =   4.00
  Atomic Wigner-Seitz radii
  virtual crystal weights
   VCA    =   1.00
   NELECT =      68.0000    total number of electrons
   NUPDOWN=      -1.0000    fix difference up-down

 DOS related values:
   EMIN   =  10.00;   EMAX   =-10.00  energy-range for DOS
   EFERMI =   0.00
   ISMEAR =     1;   SIGMA  =   0.00  broadening in eV -4-tet -1-fermi 0-gaus

 Electronic relaxation 2 (details)
   IALGO  =     38    algorithm
   LDIAG  =      T    sub-space diagonalisation (order eigenvalues)
   LSUBROT=      F    optimize rotation matrix (better conditioning)
   TURBO    =      0    0=normal 1=particle mesh
   IRESTART =      0    0=no restart 2=restart with 2 vectors
   NREBOOT  =      0    no. of reboots
   NMIN     =      0    reboot dimension
   EREF     =   0.00    reference energy to select bands
   IMIX   =      4    mixing-type and parameters
     AMIX     =   0.40;   BMIX     =  1.00
     AMIX_MAG =   1.60;   BMIX_MAG =  1.00
     AMIN     =   0.10
     WC   =   100.;   INIMIX=   1;  MIXPRE=   1;  MAXMIX= -45

 Intra band minimization:
   WEIMIN = 0.0000     energy-eigenvalue tresh-hold
   EBREAK =  0.65E-09  absolut break condition
   DEPER  =   0.30     relativ break condition

   TIME   =   0.40     timestep for ELM

  volume/ion in A,a.u.               =      19.25       129.92
  Fermi-wavevector in a.u.,A,eV,Ry     =   0.969624  1.832323 12.791792  0.940170
  Thomas-Fermi vector in A             =   2.099692

 Write flags
   LWAVE        =      T    write WAVECAR
   LDOWNSAMPLE  =      F    k-point downsampling of WAVECAR
   LCHARG       =      T    write CHGCAR
[...]
   DFIELD  = 0.0000000 0.0000000 0.0000000 field for delta impulse in time

  Optional k-point grid parameters
   LKPOINTS_OPT  =     F    use optional k-point grid
   KPOINTS_OPT_MODE=     1    mode for optional k-point grid

 Orbital magnetization related:
   ORBITALMAG=     F  switch on orbital magnetization
   LCHIMAG   =     F  perturbation theory with respect to B field
   DQ        =  0.001000  dq finite difference perturbation B field
   LLRAUG    =     F  two centre corrections for induced B field

 Static calculation
 charge density and potential will be updated during run
 non-spin polarized calculation
 Variant of blocked Davidson
 Davidson routine will perform the subspace rotation
 perform sub-space diagonalisation
    after iterative eigenvector-optimisation
 modified Broyden-mixing scheme, WC =      100.0
 initial mixing is a Kerker type mixing with AMIX =  0.4000 and BMIX =      1.0000
 Hartree-type preconditioning will be used
 using additional bands          350
 reciprocal scheme for non local part
 use partial core corrections
 calculate Harris-corrections to forces
   (improved forces if not selfconsistent)
 use gradient corrections
 use of overlap-Matrix (Vanderbilt PP)
 Methfessel and Paxton  Order N= 1 SIGMA  =   0.00

  energy-cutoff  :      400.00
  volume of cell :      327.28
      direct lattice vectors                 reciprocal lattice vectors
     5.469713400  5.469713400  0.000000000     0.091412468  0.091412468 -0.091412468
     0.000000000  5.469713400  5.469713400    -0.091412468  0.091412468  0.091412468
     5.469713400  0.000000000  5.469713400     0.091412468 -0.091412468  0.091412468

[...]

 k-points in units of 2pi/SCALE and weight: Automatic mesh
   0.00000000  0.00000000  0.00000000       1.000

 k-points in reciprocal lattice and weights: Automatic mesh
   0.00000000  0.00000000  0.00000000       1.000

 position of ions in fractional coordinates (direct lattice)
   0.19828564  0.89158935  0.21061302
   0.19828564  0.21061302  0.89158935
   0.99789096  0.98778937  0.98778937
   0.52531411  0.98780783  0.98780783
   0.99364453  0.49192646  0.01962820
   0.50271903  0.49763686  0.99572748
   0.99364453  0.01962820  0.49192646
   0.50271903  0.99572748  0.49763686
   0.00140527  0.50871400  0.50871400
   0.48005777  0.50869870  0.50869870
   0.62449680  0.12492023  0.12492023
   0.13045617  0.61416134  0.13459071
   0.61963272  0.61414602  0.13457249
   0.13045617  0.13459071  0.61416134
   0.61963272  0.13457249  0.61414602
   0.10268486  0.64675553  0.64675553
   0.62767406  0.62172240  0.62172240

 position of ions in cartesian coordinates  (Angst):
   2.23655849  5.96130384  6.02873106
   5.96130384  2.23655849  6.02873106
  10.86110233 10.86110233 10.80584951
   8.27634337  8.27634337 10.80605148
   5.54231142  8.12564753  2.79805740
   8.19607295  5.47165999  8.16827497
   8.12564753  5.54231142  2.79805740
   5.47165999  8.19607295  8.16827497
   2.79020619  2.79020619  5.56503957
   5.40821450  5.40821450  5.56487216
   4.09909638  4.09909638  1.36655570
   1.44973048  4.07284438  4.09545916
   4.12528636  6.74841611  4.09527564
   4.07284438  1.44973048  4.09545916
   6.74841611  4.12528636  4.09527564
   4.09922414  4.09922414  7.07513481
   6.83384054  6.83384054  6.80128670

 use serial FFT for orbitals x direction half grid
 k-point   1 :   0.0000 0.0000 0.0000  plane waves:    2981

 maximum and minimum number of plane-waves per node :      2981     2981

 maximum number of plane-waves:      2981
 maximum index in each direction:
   IXMAX=   12   IYMAX=   12   IZMAX=   12
   IXMIN=    0   IYMIN=  -10   IZMIN=  -10

 serial   3D FFT for wavefunctions
 parallel 3D FFT for charge:
    minimum data exchange during FFTs selected (reduces bandwidth)

 Broyden mixing: mesh for mixing (old mesh)
   NGX = 25   NGY = 25   NGZ = 25
  (NGX  = 80   NGY  = 80   NGZ  = 80)
  gives a total of  15625 points

 initial charge density was supplied:
 charge density of overlapping atoms calculated
 number of electron      68.0000000 magnetization
 keeping initial charge density in first step

 Maximum index for augmentation-charges          499 (set IRDMAX)

 First call to EWALD:  gamma=   0.257
 Maximum number of real-space cells 3x 3x 3
 Maximum number of reciprocal cells 3x 3x 3

--------------------------------------- Iteration      1(   1)  ---------------------------------------

 eigenvalue-minimisations  :  1152
 total energy-change (2. order) :-0.5753610E+02  (-0.3249887E+04)
 number of electron      68.0000000 magnetization
 augmentation part       68.0000000 magnetization

 Free energy of the ion-electron system (eV)
  alpha Z        PSCENC =        53.80049087
  Ewald energy   TEWEN  =     -1963.41543283
  -Hartree energ DENC   =      -101.18485105
  -exchange      EXHF   =         0.00000000
  -V(xc)+E(xc)   XCENC  =      -159.27511187
  PAW double counting   =      1502.55300543    -1199.01880071
  entropy T*S    EENTRO =         0.00000000
  eigenvalues    EBANDS =        56.88691712
  atomic energy  EATOM  =      1752.11768588
  Solvation  Ediel_sol  =         0.00000000
  free energy    TOTEN  =       -57.53609716 eV

  energy without entropy =      -57.53609716  energy(sigma->0) =      -57.53609716

[...]

 Broyden mixing:
  rms(total) = 0.95009E+00    rms(broyden)= 0.95008E+00
  rms(prec ) = 0.16765E+01
  weight for this iteration     100.00

[...]

 eigenvalue-minimisations  :  1536
 total energy-change (2. order) : 0.1626420E+01  (-0.2166544E+00)
 number of electron      67.9999998 magnetization
 augmentation part       -3.9677781 magnetization

[...]

 eigenvalues of (default mixing * dielectric matrix)
  average eigenvalue GAMMA=   2.3477
  2.3477

[...]

 eigenvalue-minimisations  :   768
 total energy-change (2. order) :-0.2133226E+00  (-0.7359001E+00)
 number of electron      67.9999998 magnetization
 augmentation part       -3.9155778 magnetization

[...]

 Broyden mixing:
  rms(total) = 0.77051E-01    rms(broyden)= 0.77051E-01
  rms(prec ) = 0.16133E+00
  weight for this iteration     100.00

 eigenvalues of (default mixing * dielectric matrix)
  average eigenvalue GAMMA=  16.4133
657.1233  5.6067  3.3124  3.3124  3.5874  3.5874  3.4183  3.4183  3.0173  1.4075
  1.4075  2.5367  2.0641  2.0641  2.2892  2.0920  1.1209  1.1209  1.6612  1.3584
  1.3584  0.5384  0.5384  1.4402  0.0594  0.0323  0.0001  0.9007  0.9007  0.2292
  0.2938  1.0682  1.0682  1.0743  0.8079  0.8079  0.6677  0.6677  0.6271  0.6271
  0.6196  0.6196  0.8657  0.8657

[...]

--------------------------------------- Iteration      1(  60)  ---------------------------------------

 eigenvalue-minimisations  :  1152
 total energy-change (2. order) : 0.2919401E-01  (-0.5564681E-02)
 number of electron      67.9999998 magnetization
 augmentation part       -3.9166887 magnetization

 Free energy of the ion-electron system (eV)
  alpha Z        PSCENC =        53.80049087
  Ewald energy   TEWEN  =     -1963.41543283
  -Hartree energ DENC   =      -136.60484537
  -exchange      EXHF   =         0.00000000
  -V(xc)+E(xc)   XCENC  =      -153.49928234
  PAW double counting   =      2179.21688440    -1878.04514412
  entropy T*S    EENTRO =         0.00000000
  eigenvalues    EBANDS =        73.16769833
  atomic energy  EATOM  =      1752.11768588
  Solvation  Ediel_sol  =         0.00000000
  free energy    TOTEN  =       -73.26194518 eV

  energy without entropy =      -73.26194518  energy(sigma->0) =      -73.26194518

 average (electrostatic) potential at core
  the test charge radii are     1.1243
  (the norm of the test charge is              1.0000)
       1 -66.4778       2 -66.4778       3 -66.9346       4 -66.9351       5 -66.5641
       6 -66.5787       7 -66.5641       8 -66.5787       9 -66.6321      10 -66.6326
      11 -66.5953      12 -66.5680      13 -66.5682      14 -66.5680      15 -66.5682
      16 -66.7346      17 -66.6080

 E-fermi :   5.7658     XC(G=0):  -9.5386     alpha+bet :-12.0749

 Fermi energy:         5.7658091472

 k-point     1 :       0.0000    0.0000    0.0000
  band No.  band energies     occupation
      1      -6.4414      2.00000
      2      -4.0249      2.00000
      3      -3.9971      2.00000
      4      -3.9615      2.00000
      5      -3.8488      2.00000
      6      -3.0107      2.00000
      7      -2.5656      2.00000
      8      -2.1270      2.00000
      9      -2.0903      2.00000
     10      -2.0333      2.00000
     11      -1.7622      2.00000
     12      -1.6630      2.00000
     13      -1.4775      2.00000
     14      -1.0230      2.00000
     15      -0.8366      2.00000
     16       2.2741      2.00000
     17       2.5138      2.00000
     18       2.6106      2.00000
     19       2.6851      2.00000
     20       2.7691      2.00000
     21       3.1483      2.00000
     22       3.7107      2.00000
     23       4.0578      2.00000
     24       4.3144      2.00000
     25       4.3667      2.00000
     26       4.5308      2.00000
     27       4.5369      2.00000
     28       4.6046      2.00000
     29       4.7569      2.00000
     30       4.8415      2.00000
     31       4.9074      2.00000
     32       5.4165      2.00000
     33       5.6510      2.00000
     34       5.7505      2.00000
     35       5.7801      0.00000
     36       6.2232      0.00000
     37       6.4351      0.00000
     38       6.7219      0.00000
     39       6.9440      0.00000
     40       7.0418      0.00000
     41       7.0895      0.00000
     42       7.1273      0.00000
     43       7.7757      0.00000
     44       8.0101      0.00000
     45       8.2192      0.00000
     46       8.3422      0.00000
     47       8.5096      0.00000
     48       8.5687      0.00000
     49       8.7795      0.00000
     50       8.7977      0.00000
     51       8.8713      0.00000
     52       9.0354      0.00000
     53       9.1956      0.00000
     54       9.4686      0.00000
     55      10.1441      0.00000
     56      11.4196      0.00000
     57      12.4029      0.00000
     58      12.7297      0.00000
     59      12.7657      0.00000
     60      13.3229      0.00000
[...]
    370      55.1971      0.00000
    371      55.2016      0.00000
    372      55.4425      0.00000
    373      55.4516      0.00000
    374      55.7478      0.00000
    375      55.8277      0.00000
    376      55.8617      0.00000
    377      56.2305      0.00000
    378      56.4064      0.00000
    379      56.5554      0.00000
    380      56.7222      0.00000
    381      56.8266      0.00000
    382      56.8794      0.00000
    383      56.9124      0.00000
    384      57.0621      0.00000

 soft charge-density along one line, spin component           1
         0         1         2         3         4         5         6         7         8         9
 total charge-density along one line

------------------------ aborting loop EDIFF was not reached (unconverged)  ----------------------------

  FORCE on cell =-STRESS in cart. coord.  units (eV):
  Direction    XX          YY          ZZ          XY          YZ          ZX
  Alpha Z    53.80049    53.80049    53.80049
  Ewald    -650.27374  -650.27374  -662.87394   -13.07003     0.04162     0.04162
  Hartree    48.98990    48.98990    38.49999    -3.56625     0.00837     0.00837
  E(xc)    -214.68849  -214.68849  -215.04782    -0.61728    -0.00002    -0.00002
  Local    -229.16598  -229.16598  -211.54373    -5.16995    -0.04367    -0.04367
  n-local   593.67696   593.67696   600.10207     7.58571     0.00290     0.00290
  augment   -90.97656   -90.97656   -91.72926    -1.39648    -0.00001    -0.00002
  Kinetic   500.98726   500.98726   503.29570    15.18376    -0.00543    -0.00543
  Fock        0.00000     0.00000     0.00000     0.00000     0.00000     0.00000
  Total      12.34983    12.34983    14.50350    -1.05051     0.00376     0.00376
  in kB      60.45719    60.45719    71.00023    -5.14265     0.01839     0.01839

 VOLUME and BASIS-vectors are now :
  energy-cutoff  :      400.00
  volume of cell :      327.28
      direct lattice vectors                 reciprocal lattice vectors
     5.469713400  5.469713400  0.000000000     0.091412468  0.091412468 -0.091412468
     0.000000000  5.469713400  5.469713400    -0.091412468  0.091412468  0.091412468
     5.469713400  0.000000000  5.469713400     0.091412468 -0.091412468  0.091412468

  length of vectors
     7.735342873  7.735342873  7.735342873     0.158331039  0.158331039  0.158331039

 FORCES acting on ions
    electron-ion (+dipol)            ewald-force                    non-local-force                 convergence-correction
   -.410E+01 0.409E+01 -.839E+01   0.650E+01 -.649E+01 0.673E+01   -.179E+01 0.180E+01 0.738E+00   -.283E-01 0.293E-01 0.151E+00
   0.409E+01 -.410E+01 -.839E+01   -.649E+01 0.650E+01 0.673E+01   0.180E+01 -.179E+01 0.738E+00   0.293E-01 -.283E-01 0.151E+00
   0.140E+02 0.140E+02 -.184E+01   -.156E+02 -.156E+02 0.167E+01   0.193E+01 0.193E+01 0.122E+01   0.569E-01 0.569E-01 -.224E-02
   -.140E+02 -.140E+02 -.183E+01   0.156E+02 0.156E+02 0.167E+01   -.193E+01 -.193E+01 0.121E+01   -.570E-01 -.570E-01 -.241E-02
   -.105E+02 0.105E+02 -.136E+02   0.109E+02 -.109E+02 0.155E+02   0.823E-03 0.698E-04 -.109E+01   -.657E-01 0.659E-01 -.284E+00
   -.823E+00 0.817E+00 0.108E+02   0.122E+01 -.122E+01 -.997E+01   -.549E+00 0.552E+00 0.417E-01   0.198E-01 -.197E-01 -.598E-01
   0.105E+02 -.105E+02 -.136E+02   -.109E+02 0.109E+02 0.155E+02   0.698E-04 0.823E-03 -.109E+01   0.659E-01 -.657E-01 -.284E+00
   0.817E+00 -.823E+00 0.108E+02   -.122E+01 0.122E+01 -.997E+01   0.552E+00 -.549E+00 0.417E-01   -.197E-01 0.198E-01 -.598E-01
   0.682E+01 0.682E+01 0.289E+01   -.797E+01 -.797E+01 -.121E+01   0.117E+01 0.117E+01 0.132E+00   0.118E+00 0.118E+00 -.682E-01
   -.681E+01 -.681E+01 0.291E+01   0.796E+01 0.796E+01 -.122E+01   -.118E+01 -.118E+01 0.129E+00   -.118E+00 -.118E+00 -.682E-01
   0.274E-02 0.274E-02 -.742E+01   -.121E-02 -.121E-02 0.313E+01   -.919E-03 -.919E-03 0.319E+01   -.448E-03 -.448E-03 -.247E-02
   0.201E+01 0.134E+02 0.989E+01   -.315E+01 -.138E+02 -.984E+01   0.140E+01 0.822E+00 -.534E+00   -.389E-01 0.500E-01 0.957E-01
   -.133E+02 -.202E+01 0.988E+01   0.138E+02 0.316E+01 -.983E+01   -.831E+00 -.139E+01 -.534E+00   -.507E-01 0.394E-01 0.963E-01
   0.134E+02 0.201E+01 0.989E+01   -.138E+02 -.315E+01 -.984E+01   0.822E+00 0.140E+01 -.534E+00   0.500E-01 -.389E-01 0.957E-01
   -.202E+01 -.133E+02 0.988E+01   0.316E+01 0.138E+02 -.983E+01   -.139E+01 -.831E+00 -.534E+00   0.394E-01 -.507E-01 0.963E-01
   0.464E-04 0.463E-04 -.174E+02   0.314E-02 0.314E-02 0.155E+02   -.429E-03 -.429E-03 -.925E+00   -.158E-03 -.158E-03 0.228E+00
   -.129E-01 -.129E-01 0.240E+01   0.104E-01 0.104E-01 -.464E+01   0.430E-02 0.430E-02 0.808E+00   -.222E-03 -.222E-03 0.165E+00
   -.535E-02 -.535E-02 -.329E+01   0.115E-13 -.219E-13 0.115E-13   0.488E-02 0.488E-02 0.301E+01   0.454E-03 0.454E-03 0.247E+00

 POSITION                                       TOTAL-FORCE (eV/Angst)
      2.23656      5.96130      6.02873         0.577288     -0.578156     -0.762115
      5.96130      2.23656      6.02873        -0.578156      0.577288     -0.762115
     10.86110     10.86110     10.80585         0.342686      0.342686      1.049334
      8.27634      8.27634     10.80605        -0.343974     -0.343974      1.051764
      5.54231      8.12565      2.79806         0.404258     -0.406162      0.469353
      8.19607      5.47166      8.16827        -0.133225      0.133706      0.762546
      8.12565      5.54231      2.79806        -0.406162      0.404258      0.469353
      5.47166      8.19607      8.16827         0.133706     -0.133225      0.762546
      2.79021      2.79021      5.56504         0.141759      0.141759      1.746900
      5.40821      5.40821      5.56487        -0.144411     -0.144411      1.744004
      4.09910      4.09910      1.36656         0.000168      0.000168     -1.102635
      1.44973      4.07284      4.09546         0.214162      0.410209     -0.384378
      4.12529      6.74842      4.09528        -0.408376     -0.214156     -0.385031
      4.07284      1.44973      4.09546         0.410209      0.214162     -0.384378
      6.74842      4.12529      4.09528        -0.214156     -0.408376     -0.385031
      4.09922      4.09922      7.07513         0.002603      0.002603     -2.627592
      6.83384      6.83384      6.80129         0.001623      0.001623     -1.262527
    total drift:                               -0.000025     -0.000025     -0.033151

  FREE ENERGIE OF THE ION-ELECTRON SYSTEM (eV)
  free  energy   TOTEN  =       -73.26194518 eV

  energy  without entropy=      -73.26194518  energy(sigma->0) =      -73.26194518

 writing wavefunctions