 vasp.6.3.0 20Jan22 (build Mar 03 2022 12:53:00) gamma-only

 executed on             LinuxIFC date 2022.03.15  20:20:13

 INCAR:
   ENCUT = 400
   SIGMA = 0.0001
   EDIFF = 1E-6

 POTCAR:    PAW Si_GW 04May2012
|           W    W    AA    RRRRR   N    N  II  N    N   GGGG   !!!           |
|           W    W   A  A   R    R  NN   N  II  NN   N  G    G  !!!           |
|           W    W  A    A  R    R  N N  N  II  N N  N  G       !!!           |
|           W WW W  AAAAAA  RRRRR   N  N N  II  N  N N  G  GGG   !            |
|           WW  WW  A    A  R   R   N   NN  II  N   NN  G    G                |
|           W    W  A    A  R    R  N    N  II  N    N   GGGG   !!!           |
|     For optimal performance we recommend to set                             |
|       NCORE = 2 up to number-of-cores-per-socket                            |
|     This setting can greatly improve the performance of VASP for DFT.       |
|     The default, NCORE=1 might be grossly inefficient on modern             |
|     multi-core architectures or massively parallel machines. Do your        |
|     Unfortunately you need to use the default for GW and RPA                |
|     calculations (for HF NCORE is supported but not extensively tested      |
|     yet).                                                                   |

 POTCAR:    PAW Si_GW 04May2012
   VRHFIN =Si: s2p2

   TITEL  = PAW Si_GW 04May2012
   POMASS =   28.085; ZVAL   =    4.000    mass and valenz
   ENMAX  =  245.345; ENMIN  =  184.009 eV

  PAW Si_GW 04May2012                   :

 POSCAR: cd:
  positions in direct lattice
  velocities in cartesian coordinates
 exchange correlation table for  LEXCH =        8
   RHO(1)=    0.500       N(1)  =     2000
   RHO(2)=  100.500       N(2)  =     4000

 ion  position               nearest neighbor table
   1  0.000  0.000  0.000-   9 2.37  10 2.37  11 2.37  13 2.37
   2  0.500  0.000  0.000-   9 2.37  10 2.37  12 2.37  14 2.37
   3  0.000  0.500  0.000-   9 2.37  11 2.37  12 2.37  15 2.37
   4  0.500  0.500  0.000-  10 2.37  11 2.37  12 2.37  16 2.37
   5  0.000  0.000  0.500-   9 2.37  13 2.37  14 2.37  15 2.37
   6  0.500  0.000  0.500-  10 2.37  13 2.37  14 2.37  16 2.37
   7  0.000  0.500  0.500-  11 2.37  13 2.37  15 2.37  16 2.37
   8  0.500  0.500  0.500-  12 2.37  14 2.37  15 2.37  16 2.37
   9  0.125  0.125  0.125-   1 2.37   2 2.37   3 2.37   5 2.37
  10  0.625  0.125  0.125-   1 2.37   2 2.37   4 2.37   6 2.37
  11  0.125  0.625  0.125-   1 2.37   3 2.37   4 2.37   7 2.37
  12  0.625  0.625  0.125-   2 2.37   3 2.37   4 2.37   8 2.37
  13  0.125  0.125  0.625-   1 2.37   5 2.37   6 2.37   7 2.37
  14  0.625  0.125  0.625-   2 2.37   5 2.37   6 2.37   8 2.37
  15  0.125  0.625  0.625-   3 2.37   5 2.37   7 2.37   8 2.37
  16  0.625  0.625  0.625-   4 2.37   6 2.37   7 2.37   8 2.37

  LATTYP: Found a face centered cubic cell.
 ALAT       =    10.9394268000

  Lattice vectors:

 A1 = (   5.4697134000,   5.4697134000,   0.0000000000)
 A2 = (   0.0000000000,   5.4697134000,   5.4697134000)
 A3 = (   5.4697134000,   0.0000000000,   5.4697134000)

Analysis of symmetry for initial positions (statically):
 Subroutine PRICEL returns following result:

[...]

   8 primitive cells build up your supercell.

 Routine SETGRP: Setting up the symmetry group for a
 face centered cubic supercell.

 Subroutine GETGRP returns: Found 48 space group operations
 (whereof 24 operations were pure point group operations)
 out of a pool of 48 trial point group operations.

The static configuration has the point symmetry T_d .
 The point group associated with its full space group is O_h .

Analysis of symmetry for dynamics (positions and initial velocities):
 Subroutine PRICEL returns following result:

  LATTYP: Found a face centered cubic cell.
 ALAT       =     5.4697134000

  Lattice vectors:

 A1 = (   2.7348567000,   2.7348567000,   0.0000000000)
 A2 = (   0.0000000000,   2.7348567000,   2.7348567000)
 A3 = (   2.7348567000,   0.0000000000,   2.7348567000)

   8 primitive cells build up your supercell.

 Routine SETGRP: Setting up the symmetry group for a
 face centered cubic supercell.

 Subroutine GETGRP returns: Found 48 space group operations
 (whereof 24 operations were pure point group operations)
 out of a pool of 48 trial point group operations.

The dynamic configuration has the point symmetry T_d .
 The point group associated with its full space group is O_h .

 Subroutine INISYM returns: Found 48 space group operations
 (whereof 24 operations are pure point group operations),
 and found     8 'primitive' translations

                                     Primitive cell

  volume of cell :      40.9104

  direct lattice vectors                    reciprocal lattice vectors
     2.734856700  2.734856700  0.000000000     0.182824936  0.182824936 -0.182824936
     0.000000000  2.734856700  2.734856700    -0.182824936  0.182824936  0.182824936
     2.734856700  0.000000000  2.734856700     0.182824936 -0.182824936  0.182824936

  length of vectors
     3.867671436  3.867671436  3.867671436     0.316662077  0.316662077  0.316662077

  position of ions in fractional coordinates (direct lattice)
     0.000000000  0.000000000  0.000000000
     0.250000000  0.250000000  0.250000000

  ion indices of the primitive-cell ions
   primitive index   ion index
                 1           1
                 2           9

 KPOINTS: Automatic mesh

Automatic generation of k-mesh.
 Grid dimensions read from file:
 generate k-points for:    1    1    1

 Generating k-lattice:

  Cartesian coordinates                     Fractional coordinates (reciprocal lattice)
     0.091412468  0.091412468 -0.091412468     1.000000000  0.000000000  0.000000000
    -0.091412468  0.091412468  0.091412468     0.000000000  1.000000000 -0.000000000
     0.091412468 -0.091412468  0.091412468    -0.000000000 -0.000000000  1.000000000

  Length of vectors
     0.158331039  0.158331039  0.158331039

  Shift w.r.t. Gamma in fractional coordinates (k-lattice)
     0.000000000  0.000000000  0.000000000

 Subroutine IBZKPT returns following result:

 Found      1 irreducible k-points:

 Following reciprocal coordinates:
            Coordinates               Weight
  0.000000  0.000000  0.000000      1.000000

 Following cartesian coordinates:
            Coordinates               Weight
  0.000000  0.000000  0.000000      1.000000

 SYSTEM =  unknown system
 POSCAR =  cd:

 Startparameter for this run:
   NWRITE =      2    write-flag & timer
   PREC   = normal    normal or accurate (medium, high low for compatibility)
   ISTART =      0    job   : 0-new  1-cont  2-samecut
   ICHARG =      2    charge: 1-file 2-atom 10-const
   ISPIN  =      1    spin polarized calculation?
   LNONCOLLINEAR =      F non collinear calculations
   LSORBIT =      F    spin-orbit coupling
   INIWAV =      1    electr: 0-lowe 1-rand  2-diag
   LASPH  =      F    aspherical Exc in radial PAW
 Electronic Relaxation 1
   ENCUT  =  400.0 eV  29.40 Ry    5.42 a.u.  12.61 12.61 12.61*2*pi/ulx,y,z
   ENINI  =  400.0     initial cutoff
   ENAUG  =  413.0 eV  augmentation charge cutoff
   NELM   =     60;   NELMIN=  2; NELMDL= -5     # of ELM steps
   EDIFF  = 0.1E-05   stopping-criterion for ELM
   LREAL  =      F    real-space projection
   NLSPLINE    = F    spline interpolate recip. space projectors
   LCOMPAT=      F    compatible to vasp.4.4
   GGA_COMPAT  = T    GGA compatible to vasp.4.4-vasp.4.6
   LMAXPAW     = -100 max onsite density
   LMAXMIX     =    2 max onsite mixed and CHGCAR
   VOSKOWN=      0    Vosko Wilk Nusair interpolation
   ROPT   =    0.00000
 Ionic relaxation
   EDIFFG = 0.1E-04   stopping-criterion for IOM
   NSW    =      0    number of steps for IOM
   NBLOCK =      1;   KBLOCK =      1    inner block; outer block
   IBRION =     -1    ionic relax: 0-MD 1-quasi-New 2-CG
   NFREE  =      0    steps in history (QN), initial steepest desc. (CG)
   ISIF   =      2    stress and relaxation
   IWAVPR =     10    prediction:  0-non 1-charg 2-wave 3-comb
   ISYM   =      2    0-nonsym 1-usesym 2-fastsym
   LCORR  =      T    Harris-Foulkes like correction to forces

   POTIM  = 0.5000    time-step for ionic-motion
   TEIN   =    0.0    initial temperature
   TEBEG  =    0.0;   TEEND  =   0.0 temperature during run
   SMASS  =  -3.00    Nose mass-parameter (am)
   estimated Nose-frequenzy (Omega)   =  0.10E-29 period in steps = 0.13E+47 mass=  -0.137E-26a.u.
   SCALEE = 1.0000    scale energy and forces
   NPACO  =    256;   APACO  = 10.0  distance and # of slots for P.C.
   PSTRESS=    0.0 pullay stress

  Mass of Ions in am
   POMASS =  28.09
  Ionic Valenz
   ZVAL   =   4.00
  Atomic Wigner-Seitz radii
  virtual crystal weights
   VCA    =   1.00
   NELECT =      64.0000    total number of electrons
   NUPDOWN=      -1.0000    fix difference up-down

 DOS related values:
   EMIN   =  10.00;   EMAX   =-10.00  energy-range for DOS
   EFERMI =   0.00
   ISMEAR =     1;   SIGMA  =   0.00  broadening in eV -4-tet -1-fermi 0-gaus

 Electronic relaxation 2 (details)
   IALGO  =     38    algorithm
   LDIAG  =      T    sub-space diagonalisation (order eigenvalues)
   LSUBROT=      F    optimize rotation matrix (better conditioning)
   TURBO    =      0    0=normal 1=particle mesh
   IRESTART =      0    0=no restart 2=restart with 2 vectors
   NREBOOT  =      0    no. of reboots
   NMIN     =      0    reboot dimension
   EREF     =   0.00    reference energy to select bands
   IMIX   =      4    mixing-type and parameters
     AMIX     =   0.40;   BMIX     =  1.00
     AMIX_MAG =   1.60;   BMIX_MAG =  1.00
     AMIN     =   0.10
     WC   =   100.;   INIMIX=   1;  MIXPRE=   1;  MAXMIX= -45

 Intra band minimization:
   WEIMIN = 0.0000     energy-eigenvalue tresh-hold
   EBREAK =  0.65E-09  absolut break condition
   DEPER  =   0.30     relativ break condition

   TIME   =   0.40     timestep for ELM

  volume/ion in A,a.u.               =      20.46       138.04
  Fermi-wavevector in a.u.,A,eV,Ry     =   0.950226  1.795667 12.285102  0.902929
  Thomas-Fermi vector in A             =   2.078583

 Write flags
   LWAVE        =      T    write WAVECAR
   LDOWNSAMPLE  =      F    k-point downsampling of WAVECAR
   LCHARG       =      T    write CHGCAR
   LVTOT        =      F    write LOCPOT, total local potential
   LVHAR        =      F    write LOCPOT, Hartree potential only
   LELF         =      F    write electronic localiz. function (ELF)
   LORBIT       =      0    0 simple, 1 ext, 2 COOP (PROOUT), +10 PAW based schemes

 Dipole corrections
   LMONO  =      F    monopole corrections only (constant potential shift)
   LDIPOL =      F    correct potential (dipole corrections)
   IDIPOL =      0    1-x, 2-y, 3-z, 4-all directions
   EPSILON=  1.0000000 bulk dielectric constant

 Exchange correlation treatment:
   GGA     =    --    GGA type
   VOSKOWN =     0    Vosko Wilk Nusair interpolation
   LHFCALC =     F    Hartree Fock is set to
   LHFONE  =     F    Hartree Fock one center treatment
   AEXX    =    0.0000 exact exchange contribution

 Linear response parameters
   LEPSILON=     F    determine dielectric tensor
   LRPA    =     F    only Hartree local field effects (RPA)
   LNABLA  =     F    use nabla operator in PAW spheres
   LVEL    =     F    velocity operator in full k-point grid
   CSHIFT  =0.1000    complex shift for real part using Kramers Kronig
   OMEGAMAX=  -1.0    maximum frequency
   DEG_THRESHOLD= 0.2000000E-02 threshold for treating states as degnerate
   RTIME   =   -0.100 relaxation time in fs
  (WPLASMAI=    0.000 imaginary part of plasma frequency in eV, 0.658/RTIME)
   DFIELD  = 0.0000000 0.0000000 0.0000000 field for delta impulse in time

  Optional k-point grid parameters
   LKPOINTS_OPT  =     F    use optional k-point grid
   KPOINTS_OPT_MODE=     1    mode for optional k-point grid

 Orbital magnetization related:
   ORBITALMAG=     F  switch on orbital magnetization
   LCHIMAG   =     F  perturbation theory with respect to B field
   DQ        =  0.001000  dq finite difference perturbation B field
   LLRAUG    =     F  two centre corrections for induced B field

 Static calculation
 charge density and potential will be updated during run
 non-spin polarized calculation
 Variant of blocked Davidson
 Davidson routine will perform the subspace rotation
 perform sub-space diagonalisation
    after iterative eigenvector-optimisation
 modified Broyden-mixing scheme, WC =      100.0
 initial mixing is a Kerker type mixing with AMIX =  0.4000 and BMIX =      1.0000
 Hartree-type preconditioning will be used
 using additional bands          352
 reciprocal scheme for non local part
 use partial core corrections
 calculate Harris-corrections to forces
   (improved forces if not selfconsistent)
 use gradient corrections
 use of overlap-Matrix (Vanderbilt PP)
 Methfessel and Paxton  Order N= 1 SIGMA  =   0.00

  energy-cutoff  :      400.00
  volume of cell :      327.28
      direct lattice vectors                 reciprocal lattice vectors
     5.469713400  5.469713400  0.000000000     0.091412468  0.091412468 -0.091412468
     0.000000000  5.469713400  5.469713400    -0.091412468  0.091412468  0.091412468
     5.469713400  0.000000000  5.469713400     0.091412468 -0.091412468  0.091412468

[...]

 k-points in units of 2pi/SCALE and weight: Automatic mesh
   0.00000000  0.00000000  0.00000000       1.000

 k-points in reciprocal lattice and weights: Automatic mesh
   0.00000000  0.00000000  0.00000000       1.000

 position of ions in fractional coordinates (direct lattice)
   0.00000000  0.00000000  0.00000000
   0.50000000  0.00000000  0.00000000
   0.00000000  0.50000000  0.00000000
   0.50000000  0.50000000  0.00000000
   0.00000000  0.00000000  0.50000000
   0.50000000  0.00000000  0.50000000
   0.00000000  0.50000000  0.50000000
   0.50000000  0.50000000  0.50000000
   0.12500000  0.12500000  0.12500000
   0.62500000  0.12500000  0.12500000
   0.12500000  0.62500000  0.12500000
   0.62500000  0.62500000  0.12500000
   0.12500000  0.12500000  0.62500000
   0.62500000  0.12500000  0.62500000
   0.12500000  0.62500000  0.62500000
   0.62500000  0.62500000  0.62500000

 position of ions in cartesian coordinates  (Angst):
   0.00000000  0.00000000  0.00000000
   2.73485670  2.73485670  0.00000000
   0.00000000  2.73485670  2.73485670
   2.73485670  5.46971340  2.73485670
   2.73485670  0.00000000  2.73485670
   5.46971340  2.73485670  2.73485670
   2.73485670  2.73485670  5.46971340
   5.46971340  5.46971340  5.46971340
   1.36742835  1.36742835  1.36742835
   4.10228505  4.10228505  1.36742835
   1.36742835  4.10228505  4.10228505
   4.10228505  6.83714175  4.10228505
   4.10228505  1.36742835  4.10228505
   6.83714175  4.10228505  4.10228505
   4.10228505  4.10228505  6.83714175
   6.83714175  6.83714175  6.83714175

 use serial FFT for orbitals x direction half grid
 k-point   1 :   0.0000 0.0000 0.0000  plane waves:    2981

 maximum and minimum number of plane-waves per node :      2981     2981

 maximum number of plane-waves:      2981
 maximum index in each direction:
   IXMAX=   12   IYMAX=   12   IZMAX=   12
   IXMIN=    0   IYMIN=  -10   IZMIN=  -10

 serial   3D FFT for wavefunctions
 parallel 3D FFT for charge:
    minimum data exchange during FFTs selected (reduces bandwidth)

 Broyden mixing: mesh for mixing (old mesh)
   NGX = 25   NGY = 25   NGZ = 25
  (NGX  = 80   NGY  = 80   NGZ  = 80)
  gives a total of  15625 points

 initial charge density was supplied:
 charge density of overlapping atoms calculated
 number of electron      64.0000000 magnetization
 keeping initial charge density in first step

 Maximum index for augmentation-charges          499 (set IRDMAX)

 First call to EWALD:  gamma=   0.257
 Maximum number of real-space cells 3x 3x 3
 Maximum number of reciprocal cells 3x 3x 3

--------------------------------------- Iteration      1(   1)  ---------------------------------------

 eigenvalue-minimisations  :  1152
 total energy-change (2. order) :-0.5049842E+02  (-0.3022118E+04)
 number of electron      64.0000000 magnetization
 augmentation part       64.0000000 magnetization

 Free energy of the ion-electron system (eV)
  alpha Z        PSCENC =        47.65718222
  Ewald energy   TEWEN  =     -1815.23227814
  -Hartree energ DENC   =       -91.22881067
  -exchange      EXHF   =         0.00000000
  -V(xc)+E(xc)   XCENC  =      -151.73534731
  PAW double counting   =      1414.16753453    -1128.48828302
  entropy T*S    EENTRO =         0.00000000
  eigenvalues    EBANDS =        25.30964573
  atomic energy  EATOM  =      1649.05193965
  Solvation  Ediel_sol  =         0.00000000
  free energy    TOTEN  =       -50.49841701 eV

  energy without entropy =      -50.49841701  energy(sigma->0) =      -50.49841701

[...]

 Broyden mixing:
  rms(total) = 0.11188E+01    rms(broyden)= 0.11188E+01
  rms(prec ) = 0.19221E+01
  weight for this iteration     100.00

[...]

 eigenvalue-minimisations  :  1536
 total energy-change (2. order) : 0.1993543E+01  (-0.1162734E+00)
 number of electron      63.9999974 magnetization
 augmentation part       -3.6032597 magnetization

[...]

 eigenvalues of (default mixing * dielectric matrix)
  average eigenvalue GAMMA=   2.4517
  2.4517

[...]

 eigenvalue-minimisations  :  1536
 total energy-change (2. order) : 0.1258266E-05  (-0.8500058E-07)
 number of electron      63.9999974 magnetization
 augmentation part       -3.5280721 magnetization

 Broyden mixing:
  rms(total) = 0.11088E-04    rms(broyden)= 0.11085E-04
  rms(prec ) = 0.15948E-04
  weight for this iteration     100.00

 eigenvalues of (default mixing * dielectric matrix)
  average eigenvalue GAMMA=   1.9612
  3.2501  2.7488  2.4653  2.2357  0.9682  1.0300  1.0300

[...]

--------------------------------------- Iteration      1(  13)  ---------------------------------------

 eigenvalue-minimisations  :   768
 total energy-change (2. order) :-0.1670846E-06  (-0.1808496E-09)
 number of electron      63.9999974 magnetization
 augmentation part       -3.5280721 magnetization

 Free energy of the ion-electron system (eV)
  alpha Z        PSCENC =        47.65718222
  Ewald energy   TEWEN  =     -1815.23227814
  -Hartree energ DENC   =      -139.68986152
  -exchange      EXHF   =         0.00000000
  -V(xc)+E(xc)   XCENC  =      -144.18980694
  PAW double counting   =      2163.23772268    -1880.31076974
  entropy T*S    EENTRO =         0.00000000
  eigenvalues    EBANDS =        52.81128108
  atomic energy  EATOM  =      1649.05193965
  Solvation  Ediel_sol  =         0.00000000
  free energy    TOTEN  =       -66.66459071 eV

  energy without entropy =      -66.66459071  energy(sigma->0) =      -66.66459071

 average (electrostatic) potential at core
  the test charge radii are     1.1243
  (the norm of the test charge is              1.0000)
       1 -66.8013       2 -66.8013       3 -66.8013       4 -66.8013       5 -66.8013
       6 -66.8013       7 -66.8013       8 -66.8013       9 -66.8013      10 -66.8013
      11 -66.8013      12 -66.8013      13 -66.8013      14 -66.8013      15 -66.8013
      16 -66.8013

 E-fermi :   5.6130     XC(G=0):  -9.1214     alpha+bet :-11.3646

 Fermi energy:         5.6129659771

 k-point     1 :       0.0000    0.0000    0.0000
  band No.  band energies     occupation
      1      -6.3114      2.00000
      2      -4.0153      2.00000
      3      -4.0153      2.00000
      4      -4.0153      2.00000
      5      -4.0153      2.00000
      6      -2.2242      2.00000
      7      -2.2242      2.00000
      8      -2.2242      2.00000
      9      -2.2242      2.00000
     10      -2.2242      2.00000
     11      -2.2242      2.00000
     12      -1.3784      2.00000
     13      -1.3784      2.00000
     14      -1.3784      2.00000
     15      -1.3784      2.00000
     16       2.6976      2.00000
     17       2.6976      2.00000
     18       2.6976      2.00000
     19       2.6976      2.00000
     20       2.6976      2.00000
     21       2.6976      2.00000
     22       4.3480      2.00000
     23       4.3480      2.00000
     24       4.3480      2.00000
     25       4.3480      2.00000
     26       4.3480      2.00000
     27       4.3480      2.00000
     28       4.3480      2.00000
     29       4.3480      2.00000
     30       5.5559      2.00000
     31       5.5559      2.00000
     32       5.5559      2.00000
     33       6.2020      0.00000
     34       6.2020      0.00000
     35       6.2020      0.00000
     36       6.2020      0.00000
     37       6.2020      0.00000
     38       6.2020      0.00000
     39       6.9774      0.00000
     40       6.9774      0.00000
     41       6.9774      0.00000
     42       6.9774      0.00000
     43       7.9945      0.00000
     44       7.9945      0.00000
     45       7.9945      0.00000
     46       8.6985      0.00000
     47       8.7738      0.00000
     48       8.7738      0.00000
     49       8.7738      0.00000
     50       8.7738      0.00000
     51       8.7738      0.00000
     52       8.7738      0.00000
     53       8.7738      0.00000
     54       8.7738      0.00000
     55      13.1278      0.00000
     56      13.1278      0.00000
     57      13.1820      0.00000
     58      13.1820      0.00000
     59      13.1820      0.00000
     60      13.1820      0.00000
[...]
    370      56.2804      0.00000
    371      56.2804      0.00000
    372      56.2804      0.00000
    373      56.6258      0.00000
    374      56.6258      0.00000
    375      56.6258      0.00000
    376      57.3269      0.00000
    377      57.3269      0.00000
    378      57.3269      0.00000
    379      57.3270      0.00000
    380      57.3270      0.00000
    381      57.3270      0.00000
    382      57.3270      0.00000
    383      57.3270      0.00000
    384      57.6262      0.00000

 soft charge-density along one line, spin component           1
         0         1         2         3         4         5         6         7         8         9
 total charge-density along one line

------------------------ aborting loop because EDIFF is reached ----------------------------------------

  FORCE on cell =-STRESS in cart. coord.  units (eV):
  Direction    XX          YY          ZZ          XY          YZ          ZX
  Alpha Z    47.65718    47.65718    47.65718
  Ewald    -605.07938  -605.07938  -605.07938     0.00000    -0.00000    -0.00000
  Hartree    46.56325    46.56325    46.56325     0.00000     0.00000     0.00000
  E(xc)    -203.46350  -203.46350  -203.46350    -0.00001    -0.00001    -0.00001
  Local    -224.90318  -224.90318  -224.90318     0.00005     0.00005     0.00005
  n-local   554.50270   554.50270   554.50270    -0.00000    -0.00000    -0.00000
  augment   -82.13238   -82.13238   -82.13238    -0.00007    -0.00007    -0.00007
  Kinetic   482.04713   482.04713   482.04713     0.00001     0.00001     0.00001
  Fock        0.00000     0.00000     0.00000     0.00000     0.00000     0.00000
  Total      15.19183    15.19183    15.19183    -0.00000     0.00000    -0.00000
  in kB      74.36987    74.36987    74.36987    -0.00000     0.00000    -0.00000

 VOLUME and BASIS-vectors are now :
  energy-cutoff  :      400.00
  volume of cell :      327.28
      direct lattice vectors                 reciprocal lattice vectors
     5.469713400  5.469713400  0.000000000     0.091412468  0.091412468 -0.091412468
     0.000000000  5.469713400  5.469713400    -0.091412468  0.091412468  0.091412468
     5.469713400  0.000000000  5.469713400     0.091412468 -0.091412468  0.091412468

  length of vectors
     7.735342873  7.735342873  7.735342873     0.158331039  0.158331039  0.158331039

 FORCES acting on ions
    electron-ion (+dipol)            ewald-force                    non-local-force                 convergence-correction
   0.104E-05 0.111E-05 0.104E-05   -.242E-13 -.329E-13 0.202E-13   0.394E-21 -.126E-20 -.390E-21   -.299E-10 -.299E-10 -.299E-10
   0.104E-05 0.111E-05 0.104E-05   -.246E-13 -.320E-13 0.175E-13   -.170E-21 -.153E-20 0.164E-21   -.299E-10 -.300E-10 -.300E-10
   0.104E-05 0.111E-05 0.104E-05   -.280E-13 -.329E-13 0.207E-13   0.108E-20 -.156E-20 0.178E-23   -.300E-10 -.300E-10 -.299E-10
   0.104E-05 0.111E-05 0.104E-05   -.249E-13 -.320E-13 0.213E-13   0.120E-20 -.160E-20 0.714E-21   -.299E-10 -.299E-10 -.299E-10
   0.104E-05 0.111E-05 0.104E-05   -.235E-13 -.278E-13 0.207E-13   0.928E-21 -.121E-20 0.912E-21   -.300E-10 -.300E-10 -.299E-10
   0.104E-05 0.111E-05 0.104E-05   -.249E-13 -.320E-13 0.213E-13   0.142E-20 -.126E-20 0.595E-21   -.299E-10 -.299E-10 -.299E-10
   0.104E-05 0.111E-05 0.104E-05   -.249E-13 -.320E-13 0.213E-13   0.249E-21 -.138E-20 0.891E-21   -.300E-10 -.299E-10 -.299E-10
   0.104E-05 0.111E-05 0.104E-05   -.249E-13 -.320E-13 0.213E-13   0.214E-21 -.169E-20 0.310E-21   -.300E-10 -.299E-10 -.300E-10
   -.104E-05 -.111E-05 -.104E-05   0.246E-13 0.334E-13 -.188E-13   -.435E-21 0.123E-20 0.408E-21   0.300E-10 0.299E-10 0.299E-10
   -.104E-05 -.111E-05 -.104E-05   0.237E-13 0.317E-13 -.170E-13   0.169E-21 0.162E-20 -.125E-21   0.299E-10 0.299E-10 0.300E-10
   -.104E-05 -.111E-05 -.104E-05   0.284E-13 0.329E-13 -.204E-13   -.113E-20 0.155E-20 -.186E-21   0.300E-10 0.300E-10 0.299E-10
   -.104E-05 -.111E-05 -.104E-05   0.254E-13 0.326E-13 -.205E-13   -.118E-20 0.155E-20 -.887E-21   0.299E-10 0.299E-10 0.300E-10
   -.104E-05 -.111E-05 -.104E-05   0.228E-13 0.271E-13 -.214E-13   -.106E-20 0.126E-20 -.818E-21   0.299E-10 0.300E-10 0.299E-10
   -.104E-05 -.111E-05 -.104E-05   0.243E-13 0.319E-13 -.216E-13   -.150E-20 0.124E-20 -.587E-21   0.299E-10 0.299E-10 0.299E-10
   -.104E-05 -.111E-05 -.104E-05   0.256E-13 0.322E-13 -.217E-13   -.198E-21 0.141E-20 -.125E-20   0.299E-10 0.300E-10 0.299E-10
   -.104E-05 -.111E-05 -.104E-05   0.243E-13 0.314E-13 -.226E-13   -.229E-21 0.168E-20 -.402E-21   0.299E-10 0.299E-10 0.299E-10
   -.325E-12 0.474E-12 0.291E-12   -.549E-15 -.119E-15 0.145E-15   -.251E-21 0.543E-22 -.644E-21   -.580E-13 -.378E-13 -.632E-13

 POSITION                                       TOTAL-FORCE (eV/Angst)
      0.00000      0.00000      0.00000         0.000000     -0.000000      0.000000
      2.73486      2.73486      0.00000         0.000000      0.000000      0.000000
      0.00000      2.73486      2.73486         0.000000      0.000000      0.000000
      2.73486      5.46971      2.73486         0.000000      0.000000      0.000000
      2.73486      0.00000      2.73486         0.000000      0.000000      0.000000
      5.46971      2.73486      2.73486         0.000000      0.000000      0.000000
      2.73486      2.73486      5.46971        -0.000000      0.000000      0.000000
      5.46971      5.46971      5.46971         0.000000      0.000000      0.000000
      1.36743      1.36743      1.36743        -0.000000      0.000000     -0.000000
      4.10229      4.10229      1.36743        -0.000000      0.000000     -0.000000
      1.36743      4.10229      4.10229        -0.000000     -0.000000     -0.000000
      4.10229      6.83714      4.10229        -0.000000     -0.000000     -0.000000
      4.10229      1.36743      4.10229        -0.000000     -0.000000     -0.000000
      6.83714      4.10229      4.10229        -0.000000     -0.000000     -0.000000
      4.10229      4.10229      6.83714         0.000000     -0.000000     -0.000000
      6.83714      6.83714      6.83714        -0.000000     -0.000000     -0.000000
    total drift:                               -0.000000      0.000000      0.000000

  FREE ENERGIE OF THE ION-ELECTRON SYSTEM (eV)
  free  energy   TOTEN  =       -66.66459071 eV

  energy  without entropy=      -66.66459071  energy(sigma->0) =      -66.66459071

 writing wavefunctions