 vasp.6.3.0 20Jan22 (build Mar 03 2022 12:53:00) gamma-only

 executed on             LinuxIFC date 2022.03.04  16:03:08

 INCAR:
   ENCUT = 400
   SIGMA = 0.0001
   EDIFF = 1E-6

 POTCAR:    PAW Si_GW 04May2012
|           W    W    AA    RRRRR   N    N  II  N    N   GGGG   !!!           |
|           W    W   A  A   R    R  NN   N  II  NN   N  G    G  !!!           |
|           W    W  A    A  R    R  N N  N  II  N N  N  G       !!!           |
|           W WW W  AAAAAA  RRRRR   N  N N  II  N  N N  G  GGG   !            |
|           WW  WW  A    A  R   R   N   NN  II  N   NN  G    G                |
|           W    W  A    A  R    R  N    N  II  N    N   GGGG   !!!           |
|     For optimal performance we recommend to set                             |
|       NCORE = 2 up to number-of-cores-per-socket                            |
|     This setting can greatly improve the performance of VASP for DFT.       |
|     The default, NCORE=1 might be grossly inefficient on modern             |
|     multi-core architectures or massively parallel machines. Do your        |
|     Unfortunately you need to use the default for GW and RPA                |
|     calculations (for HF NCORE is supported but not extensively tested      |
|     yet).                                                                   |

 POTCAR:    PAW Si_GW 04May2012
   VRHFIN =Si: s2p2

   TITEL  = PAW Si_GW 04May2012
   POMASS =   28.085; ZVAL   =    4.000    mass and valenz
   ENMAX  =  245.345; ENMIN  =  184.009 eV

  PAW Si_GW 04May2012                   :

 POSCAR: cd:
  positions in direct lattice
  velocities in cartesian coordinates
 exchange correlation table for  LEXCH =        8
   RHO(1)=    0.500       N(1)  =     2000
   RHO(2)=  100.500       N(2)  =     4000

 ion  position               nearest neighbor table
   1  0.284  0.284  0.147-   3 2.44   4 2.44   5 2.44  10 2.44  11 2.44  12 2.44  14 2.64
   2  0.018  0.018  0.945-  11 2.33  12 2.33  10 2.33  14 2.40
   3  0.501  0.992  0.006-  15 2.35  13 2.37   1 2.44  11 2.48  10 2.48
   4  0.992  0.501  0.006-  16 2.35  13 2.37   1 2.44  12 2.48  10 2.48
   5  0.501  0.501  0.006-  17 2.35  13 2.37   1 2.44  11 2.48  12 2.48
   6  0.993  0.993  0.500-  15 2.35  16 2.35  14 2.36  10 2.37
   7  0.513  0.993  0.500-  17 2.35  15 2.35  14 2.36  11 2.37
   8  0.993  0.513  0.500-  16 2.35  17 2.35  14 2.36  12 2.37
   9  0.494  0.494  0.519-  13 2.35  17 2.35  16 2.35  15 2.35
  10  0.109  0.109  0.126-   2 2.33   6 2.37   1 2.44   4 2.48   3 2.48
  11  0.655  0.109  0.126-   2 2.33   7 2.37   1 2.44   3 2.48   5 2.48
  12  0.109  0.655  0.126-   2 2.33   8 2.37   1 2.44   4 2.48   5 2.48
  13  0.618  0.618  0.147-   9 2.35   5 2.37   3 2.37   4 2.37
  14  0.145  0.145  0.565-   7 2.36   8 2.36   6 2.36   2 2.40   1 2.64
  15  0.622  0.121  0.635-   3 2.35   6 2.35   7 2.35   9 2.35
  16  0.121  0.622  0.635-   4 2.35   6 2.35   8 2.35   9 2.35
  17  0.622  0.622  0.635-   5 2.35   7 2.35   8 2.35   9 2.35

  LATTYP: Found a face centered cubic cell.
 ALAT       =    10.9394268000

  Lattice vectors:

 A1 = (   5.4697134000,   5.4697134000,   0.0000000000)
 A2 = (   0.0000000000,   5.4697134000,   5.4697134000)
 A3 = (   5.4697134000,   0.0000000000,   5.4697134000)

Analysis of symmetry for initial positions (statically):
 Subroutine PRICEL returns:
 Original cell was already a primitive cell.

 Routine SETGRP: Setting up the symmetry group for a
 face centered cubic supercell.

 Subroutine GETGRP returns: Found  6 space group operations
 (whereof  6 operations were pure point group operations)
 out of a pool of 48 trial point group operations.

The static configuration has the point symmetry C_3v.

Analysis of symmetry for dynamics (positions and initial velocities):
 Subroutine PRICEL returns:
 Original cell was already a primitive cell.

 Routine SETGRP: Setting up the symmetry group for a
 face centered cubic supercell.

 Subroutine GETGRP returns: Found  6 space group operations
 (whereof  6 operations were pure point group operations)
 out of a pool of 48 trial point group operations.

The dynamic configuration has the point symmetry C_3v.

 Subroutine INISYM returns: Found  6 space group operations
 (whereof  6 operations are pure point group operations),
 and found     1 'primitive' translations

                                     Primitive cell

  volume of cell :     327.2832

  direct lattice vectors                    reciprocal lattice vectors
     5.469713400  5.469713400  0.000000000     0.091412468  0.091412468 -0.091412468
     0.000000000  5.469713400  5.469713400    -0.091412468  0.091412468  0.091412468
     5.469713400  0.000000000  5.469713400     0.091412468 -0.091412468  0.091412468

  length of vectors
     7.735342873  7.735342873  7.735342873     0.158331039  0.158331039  0.158331039

  position of ions in fractional coordinates (direct lattice)
     0.284471511  0.284471511  0.146585467
     0.018175813  0.018175813  0.945472562
     0.501011833  0.992088329  0.005888006
     0.992088329  0.501011833  0.005888006
     0.501011833  0.501011833  0.005888006
     0.993336241  0.993336241  0.500231136
     0.513096381  0.993336241  0.500231136
     0.993336241  0.513096381  0.500231136
     0.493671771  0.493671771  0.518984687
     0.109447435  0.109447435  0.125847277
     0.655257852  0.109447435  0.125847277
     0.109447435  0.655257852  0.125847277
     0.617716309  0.617716309  0.146851073
     0.144941613  0.144941613  0.565175161
     0.622059679  0.121370045  0.634510597
     0.121370045  0.622059679  0.634510597
     0.622059679  0.622059679  0.634510597

  ion indices of the primitive-cell ions
   primitive index   ion index
                 1           1
                 2           2
                 3           3
                 4           4
                 5           5
                 6           6
                 7           7
                 8           8
                 9           9
                10          10
                11          11
                12          12
                13          13
                14          14
                15          15
                16          16
                17          17

 KPOINTS: Automatic mesh

Automatic generation of k-mesh.
 Grid dimensions read from file:
 generate k-points for:    1    1    1

 Generating k-lattice:

  Cartesian coordinates                     Fractional coordinates (reciprocal lattice)
     0.091412468  0.091412468 -0.091412468     1.000000000  0.000000000  0.000000000
    -0.091412468  0.091412468  0.091412468     0.000000000  1.000000000 -0.000000000
     0.091412468 -0.091412468  0.091412468    -0.000000000 -0.000000000  1.000000000

  Length of vectors
     0.158331039  0.158331039  0.158331039

  Shift w.r.t. Gamma in fractional coordinates (k-lattice)
     0.000000000  0.000000000  0.000000000

 Subroutine IBZKPT returns following result:

 Found      1 irreducible k-points:

 Following reciprocal coordinates:
            Coordinates               Weight
  0.000000  0.000000  0.000000      1.000000

 Following cartesian coordinates:
            Coordinates               Weight
  0.000000  0.000000  0.000000      1.000000

 SYSTEM =  unknown system
 POSCAR =  cd:

 Startparameter for this run:
   NWRITE =      2    write-flag & timer
   PREC   = normal    normal or accurate (medium, high low for compatibility)
   ISTART =      0    job   : 0-new  1-cont  2-samecut
   ICHARG =      2    charge: 1-file 2-atom 10-const
   ISPIN  =      1    spin polarized calculation?
   LNONCOLLINEAR =      F non collinear calculations
   LSORBIT =      F    spin-orbit coupling
   INIWAV =      1    electr: 0-lowe 1-rand  2-diag
   LASPH  =      F    aspherical Exc in radial PAW
 Electronic Relaxation 1
   ENCUT  =  400.0 eV  29.40 Ry    5.42 a.u.  12.61 12.61 12.61*2*pi/ulx,y,z
   ENINI  =  400.0     initial cutoff
   ENAUG  =  413.0 eV  augmentation charge cutoff
   NELM   =     60;   NELMIN=  2; NELMDL= -5     # of ELM steps
   EDIFF  = 0.1E-05   stopping-criterion for ELM
   LREAL  =      F    real-space projection
   NLSPLINE    = F    spline interpolate recip. space projectors
   LCOMPAT=      F    compatible to vasp.4.4
   GGA_COMPAT  = T    GGA compatible to vasp.4.4-vasp.4.6
   LMAXPAW     = -100 max onsite density
   LMAXMIX     =    2 max onsite mixed and CHGCAR
   VOSKOWN=      0    Vosko Wilk Nusair interpolation
   ROPT   =    0.00000
 Ionic relaxation
   EDIFFG = 0.1E-04   stopping-criterion for IOM
   NSW    =      0    number of steps for IOM
   NBLOCK =      1;   KBLOCK =      1    inner block; outer block
   IBRION =     -1    ionic relax: 0-MD 1-quasi-New 2-CG
   NFREE  =      0    steps in history (QN), initial steepest desc. (CG)
   ISIF   =      2    stress and relaxation
   IWAVPR =     10    prediction:  0-non 1-charg 2-wave 3-comb
   ISYM   =      2    0-nonsym 1-usesym 2-fastsym
   LCORR  =      T    Harris-Foulkes like correction to forces

   POTIM  = 0.5000    time-step for ionic-motion
   TEIN   =    0.0    initial temperature
   TEBEG  =    0.0;   TEEND  =   0.0 temperature during run
   SMASS  =  -3.00    Nose mass-parameter (am)
   estimated Nose-frequenzy (Omega)   =  0.10E-29 period in steps = 0.13E+47 mass=  -0.137E-26a.u.
   SCALEE = 1.0000    scale energy and forces
   NPACO  =    256;   APACO  = 10.0  distance and # of slots for P.C.
   PSTRESS=    0.0 pullay stress

  Mass of Ions in am
   POMASS =  28.09
  Ionic Valenz
   ZVAL   =   4.00
  Atomic Wigner-Seitz radii
  virtual crystal weights
   VCA    =   1.00
   NELECT =      68.0000    total number of electrons
   NUPDOWN=      -1.0000    fix difference up-down

 DOS related values:
   EMIN   =  10.00;   EMAX   =-10.00  energy-range for DOS
   EFERMI =   0.00
   ISMEAR =     1;   SIGMA  =   0.00  broadening in eV -4-tet -1-fermi 0-gaus

 Electronic relaxation 2 (details)
   IALGO  =     38    algorithm
   LDIAG  =      T    sub-space diagonalisation (order eigenvalues)
   LSUBROT=      F    optimize rotation matrix (better conditioning)
   TURBO    =      0    0=normal 1=particle mesh
   IRESTART =      0    0=no restart 2=restart with 2 vectors
   NREBOOT  =      0    no. of reboots
   NMIN     =      0    reboot dimension
   EREF     =   0.00    reference energy to select bands
   IMIX   =      4    mixing-type and parameters
     AMIX     =   0.40;   BMIX     =  1.00
     AMIX_MAG =   1.60;   BMIX_MAG =  1.00
     AMIN     =   0.10
     WC   =   100.;   INIMIX=   1;  MIXPRE=   1;  MAXMIX= -45

 Intra band minimization:
   WEIMIN = 0.0000     energy-eigenvalue tresh-hold
   EBREAK =  0.13E-08  absolut break condition
   DEPER  =   0.30     relativ break condition

   TIME   =   0.40     timestep for ELM

  volume/ion in A,a.u.               =      19.25       129.92
  Fermi-wavevector in a.u.,A,eV,Ry     =   0.969624  1.832323 12.791792  0.940170
  Thomas-Fermi vector in A             =   2.099692

 Write flags
   LWAVE        =      T    write WAVECAR
   LDOWNSAMPLE  =      F    k-point downsampling of WAVECAR
   LCHARG       =      T    write CHGCAR
   LVTOT        =      F    write LOCPOT, total local potential
[...]
   CSHIFT  =0.1000    complex shift for real part using Kramers Kronig
   OMEGAMAX=  -1.0    maximum frequency
   DEG_THRESHOLD= 0.2000000E-02 threshold for treating states as degnerate
   RTIME   =   -0.100 relaxation time in fs
  (WPLASMAI=    0.000 imaginary part of plasma frequency in eV, 0.658/RTIME)
   DFIELD  = 0.0000000 0.0000000 0.0000000 field for delta impulse in time

  Optional k-point grid parameters
   LKPOINTS_OPT  =     F    use optional k-point grid
   KPOINTS_OPT_MODE=     1    mode for optional k-point grid

 Orbital magnetization related:
   ORBITALMAG=     F  switch on orbital magnetization
   LCHIMAG   =     F  perturbation theory with respect to B field
   DQ        =  0.001000  dq finite difference perturbation B field
   LLRAUG    =     F  two centre corrections for induced B field

 Static calculation
 charge density and potential will be updated during run
 non-spin polarized calculation
 Variant of blocked Davidson
 Davidson routine will perform the subspace rotation
 perform sub-space diagonalisation
    after iterative eigenvector-optimisation
 modified Broyden-mixing scheme, WC =      100.0
 initial mixing is a Kerker type mixing with AMIX =  0.4000 and BMIX =      1.0000
 Hartree-type preconditioning will be used
 using additional bands          158
 reciprocal scheme for non local part
 use partial core corrections
 calculate Harris-corrections to forces
   (improved forces if not selfconsistent)
 use gradient corrections
 use of overlap-Matrix (Vanderbilt PP)
 Methfessel and Paxton  Order N= 1 SIGMA  =   0.00

  energy-cutoff  :      400.00
  volume of cell :      327.28
      direct lattice vectors                 reciprocal lattice vectors
     5.469713400  5.469713400  0.000000000     0.091412468  0.091412468 -0.091412468
     0.000000000  5.469713400  5.469713400    -0.091412468  0.091412468  0.091412468
     5.469713400  0.000000000  5.469713400     0.091412468 -0.091412468  0.091412468

[...]

 k-points in units of 2pi/SCALE and weight: Automatic mesh
   0.00000000  0.00000000  0.00000000       1.000

 k-points in reciprocal lattice and weights: Automatic mesh
   0.00000000  0.00000000  0.00000000       1.000

 position of ions in fractional coordinates (direct lattice)
   0.28447151  0.28447151  0.14658547
   0.01817581  0.01817581  0.94547256
   0.50101183  0.99208833  0.00588801
   0.99208833  0.50101183  0.00588801
   0.50101183  0.50101183  0.00588801
   0.99333624  0.99333624  0.50023114
   0.51309638  0.99333624  0.50023114
   0.99333624  0.51309638  0.50023114
   0.49367177  0.49367177  0.51898469
   0.10944744  0.10944744  0.12584728
   0.65525785  0.10944744  0.12584728
   0.10944744  0.65525785  0.12584728
   0.61771631  0.61771631  0.14685107
   0.14494161  0.14494161  0.56517516
   0.62205968  0.12137004  0.63451060
   0.12137004  0.62205968  0.63451060
   0.62205968  0.62205968  0.63451060

 position of ions in cartesian coordinates  (Angst):
   2.35775813  3.11195527  2.35775813
   5.27088043  0.19883297  5.27088043
   2.77259684  8.16682996  5.45864453
   5.45864453  8.16682996  2.77259684
   2.77259684  5.48078227  2.77259684
   8.16938550 10.86652910  8.16938550
   5.54261110  8.23975470  8.16938550
   8.16938550  8.23975470  5.54261110
   5.53894060  5.40048620  5.53894060
   1.28699464  1.19729221  1.28699464
   4.27242119  4.18271876  1.28699464
   1.28699464  4.18271876  4.27242119
   4.18196446  6.75746234  4.18196446
   3.88413524  1.58557816  3.88413524
   6.87307928  4.06634752  4.13445048
   4.13445048  4.06634752  6.87307928
   6.87307928  6.80497632  6.87307928

 use serial FFT for orbitals x direction half grid
 k-point   1 :   0.0000 0.0000 0.0000  plane waves:    2981

 maximum and minimum number of plane-waves per node :      2981     2981

 maximum number of plane-waves:      2981
 maximum index in each direction:
   IXMAX=   12   IYMAX=   12   IZMAX=   12
   IXMIN=    0   IYMIN=  -10   IZMIN=  -10

 serial   3D FFT for wavefunctions
 parallel 3D FFT for charge:
    minimum data exchange during FFTs selected (reduces bandwidth)

 Broyden mixing: mesh for mixing (old mesh)
   NGX = 25   NGY = 25   NGZ = 25
  (NGX  = 80   NGY  = 80   NGZ  = 80)
  gives a total of  15625 points

 initial charge density was supplied:
 charge density of overlapping atoms calculated
 number of electron      68.0000000 magnetization
 keeping initial charge density in first step

 Maximum index for augmentation-charges          494 (set IRDMAX)

 First call to EWALD:  gamma=   0.257
 Maximum number of real-space cells 3x 3x 3
 Maximum number of reciprocal cells 3x 3x 3

--------------------------------------- Iteration      1(   1)  ---------------------------------------

 eigenvalue-minimisations  :   576
 total energy-change (2. order) :-0.2116010E+02  (-0.3164996E+04)
 number of electron      68.0000000 magnetization
 augmentation part       68.0000000 magnetization

 Free energy of the ion-electron system (eV)
  alpha Z        PSCENC =        53.80049087
  Ewald energy   TEWEN  =     -1956.80383154
  -Hartree energ DENC   =      -104.48642838
  -exchange      EXHF   =         0.00000000
  -V(xc)+E(xc)   XCENC  =      -159.09713823
  PAW double counting   =      1502.55300543    -1199.01880071
  entropy T*S    EENTRO =         0.00000000
  eigenvalues    EBANDS =        89.77491664
  atomic energy  EATOM  =      1752.11768588
  Solvation  Ediel_sol  =         0.00000000
  free energy    TOTEN  =       -21.16010004 eV

  energy without entropy =      -21.16010004  energy(sigma->0) =      -21.16010004

[...]

 Broyden mixing:
  rms(total) = 0.10385E+01    rms(broyden)= 0.10385E+01
  rms(prec ) = 0.19148E+01
  weight for this iteration     100.00

[...]

 eigenvalue-minimisations  :   768
 total energy-change (2. order) : 0.2329107E+01  (-0.4585782E+00)
 number of electron      68.0000004 magnetization
 augmentation part       -3.9075866 magnetization

[...]

 eigenvalues of (default mixing * dielectric matrix)
  average eigenvalue GAMMA=   2.2502
  2.2502

[...]

 eigenvalue-minimisations  :   384
 total energy-change (2. order) : 0.1363965E-01  (-0.1574809E-01)
 number of electron      68.0000004 magnetization
 augmentation part       -3.8468127 magnetization

[...]

 Broyden mixing:
  rms(total) = 0.11331E-03    rms(broyden)= 0.11331E-03
  rms(prec ) = 0.20578E-03
  weight for this iteration     100.00

 eigenvalues of (default mixing * dielectric matrix)
  average eigenvalue GAMMA=   1.7666
  3.2902  2.6042  2.1646  1.7746  0.8921  0.9932  1.2069  1.2069

[...]

--------------------------------------- Iteration      1(  14)  ---------------------------------------

 eigenvalue-minimisations  :   384
 total energy-change (2. order) :-0.3950172E-06  (-0.1670045E-07)
 number of electron      68.0000004 magnetization
 augmentation part       -3.8486351 magnetization

 Free energy of the ion-electron system (eV)
  alpha Z        PSCENC =        53.80049087
  Ewald energy   TEWEN  =     -1956.80383154
  -Hartree energ DENC   =      -147.70201755
  -exchange      EXHF   =         0.00000000
  -V(xc)+E(xc)   XCENC  =      -152.48285046
  PAW double counting   =      2236.13711805    -1935.19250547
  entropy T*S    EENTRO =         0.00000000
  eigenvalues    EBANDS =        77.77244493
  atomic energy  EATOM  =      1752.11768588
  Solvation  Ediel_sol  =         0.00000000
  free energy    TOTEN  =       -72.35346530 eV

  energy without entropy =      -72.35346530  energy(sigma->0) =      -72.35346530

 average (electrostatic) potential at core
  the test charge radii are     1.1243
  (the norm of the test charge is              1.0000)
       1 -66.4706       2 -66.3041       3 -66.6298       4 -66.6298       5 -66.6298
       6 -66.4557       7 -66.4557       8 -66.4557       9 -66.2700      10 -66.7224
      11 -66.7224      12 -66.7224      13 -66.2874      14 -66.2720      15 -66.3910
      16 -66.3910      17 -66.3910

 E-fermi :   5.9030     XC(G=0):  -9.4714     alpha+bet :-12.0749

 Fermi energy:         5.9029793323

 k-point     1 :       0.0000    0.0000    0.0000
  band No.  band energies     occupation
      1      -6.4455      2.00000
      2      -4.1172      2.00000
      3      -3.8930      2.00000
      4      -3.8930      2.00000
      5      -3.7336      2.00000
      6      -3.0587      2.00000
      7      -2.1074      2.00000
      8      -2.1074      2.00000
      9      -2.0283      2.00000
     10      -1.9375      2.00000
     11      -1.9375      2.00000
     12      -1.6102      2.00000
     13      -1.1098      2.00000
     14      -1.0870      2.00000
     15      -1.0870      2.00000
     16       2.3311      2.00000
     17       2.3311      2.00000
     18       2.3907      2.00000
     19       3.0711      2.00000
     20       3.0711      2.00000
     21       3.1210      2.00000
     22       3.4847      2.00000
     23       4.2530      2.00000
     24       4.2530      2.00000
     25       4.5230      2.00000
     26       4.5230      2.00000
     27       4.6987      2.00000
     28       4.6987      2.00000
     29       4.7290      2.00000
     30       4.7964      2.00000
     31       5.4677      2.00000
     32       5.7188      2.00000
     33       5.7188      2.00000
     34       5.8584      2.00000
     35       6.2254      0.00000
     36       6.2254      0.00000
     37       6.5246      0.00000
     38       6.5246      0.00000
     39       7.0650      0.00000
     40       7.0650      0.00000
     41       7.1024      0.00000
     42       7.1677      0.00000
     43       7.4691      0.00000
     44       7.4691      0.00000
     45       8.0033      0.00000
     46       8.4303      0.00000
     47       8.6910      0.00000
     48       8.6910      0.00000
     49       8.7621      0.00000
     50       8.8657      0.00000
     51       8.8657      0.00000
     52       9.1393      0.00000
     53       9.1699      0.00000
     54       9.1699      0.00000
     55      10.8322      0.00000
     56      12.0318      0.00000
     57      12.9061      0.00000
     58      12.9061      0.00000
     59      13.2172      0.00000
     60      13.2172      0.00000
[...]
    178      30.9796      0.00000
    179      31.0540      0.00000
    180      31.0540      0.00000
    181      31.3653      0.00000
    182      31.5408      0.00000
    183      31.5408      0.00000
    184      31.8694      0.00000
    185      31.9207      0.00000
    186      31.9208      0.00000
    187      31.9996      0.00000
    188      32.1567      0.00000
    189      32.3219      0.00000
    190      32.3219      0.00000
    191      32.4372      0.00000
    192      32.4372      0.00000

 soft charge-density along one line, spin component           1
         0         1         2         3         4         5         6         7         8         9
 total charge-density along one line

------------------------ aborting loop because EDIFF is reached ----------------------------------------

  FORCE on cell =-STRESS in cart. coord.  units (eV):
  Direction    XX          YY          ZZ          XY          YZ          ZX
  Alpha Z    53.80049    53.80049    53.80049
  Ewald    -652.26998  -652.26998  -652.26998    12.14261    12.14261   -12.14261
  Hartree    49.23407    49.23407    49.23407     1.68272     1.68272    -1.68272
  E(xc)    -216.17273  -216.17273  -216.17273     0.14664     0.14664    -0.14666
  Local    -231.38035  -231.38035  -231.38035    -8.01431    -8.01431     8.01443
  n-local   592.77208   592.77208   592.77208    -2.21367    -2.21367     2.21367
  augment   -89.58014   -89.58013   -89.58014     0.41615     0.41615    -0.41631
  Kinetic   509.32987   509.32987   509.32987    -4.81932    -4.81932     4.81937
  Fock        0.00000     0.00000     0.00000     0.00000     0.00000     0.00000
  Total      15.73331    15.73331    15.73331    -0.65917    -0.65917     0.65917
  in kB      77.02063    77.02063    77.02063    -3.22691    -3.22691     3.22691

 VOLUME and BASIS-vectors are now :
  energy-cutoff  :      400.00
  volume of cell :      327.28
      direct lattice vectors                 reciprocal lattice vectors
     5.469713400  5.469713400  0.000000000     0.091412468  0.091412468 -0.091412468
     0.000000000  5.469713400  5.469713400    -0.091412468  0.091412468  0.091412468
     5.469713400  0.000000000  5.469713400     0.091412468 -0.091412468  0.091412468

  length of vectors
     7.735342873  7.735342873  7.735342873     0.158331039  0.158331039  0.158331039

 FORCES acting on ions
    electron-ion (+dipol)            ewald-force                    non-local-force                 convergence-correction
   -.248E+01 0.248E+01 -.248E+01   0.125E+01 -.125E+01 0.125E+01   0.417E+00 -.417E+00 0.417E+00   0.177E-04 -.177E-04 0.177E-04
   0.607E+01 -.607E+01 0.607E+01   -.670E+01 0.670E+01 -.670E+01   0.683E+00 -.683E+00 0.683E+00   0.175E-04 -.175E-04 0.175E-04
   -.560E+01 0.560E+01 0.225E+02   0.452E+01 -.452E+01 -.230E+02   0.660E+00 -.660E+00 0.182E+01   -.114E-04 0.114E-04 0.446E-04
   0.225E+02 0.560E+01 -.560E+01   -.230E+02 -.452E+01 0.452E+01   0.182E+01 -.660E+00 0.660E+00   0.446E-04 0.114E-04 -.114E-04
   -.560E+01 -.225E+02 -.560E+01   0.452E+01 0.230E+02 0.452E+01   0.660E+00 -.182E+01 0.660E+00   -.114E-04 -.446E-04 -.114E-04
   -.938E+00 0.120E+02 -.938E+00   0.177E+01 -.128E+02 0.177E+01   -.124E+01 0.114E+01 -.124E+01   0.442E-04 0.873E-04 0.442E-04
   -.120E+02 0.938E+00 -.938E+00   0.128E+02 -.177E+01 0.177E+01   -.114E+01 0.124E+01 -.124E+01   -.873E-04 -.442E-04 0.442E-04
   -.938E+00 0.938E+00 -.120E+02   0.177E+01 -.177E+01 0.128E+02   -.124E+01 0.124E+01 -.114E+01   0.442E-04 -.442E-04 -.873E-04
   0.852E+00 -.852E+00 0.852E+00   -.115E+01 0.115E+01 -.115E+01   0.563E+00 -.563E+00 0.563E+00   -.838E-05 0.838E-05 -.838E-05
   0.137E+02 0.189E+02 0.137E+02   -.117E+02 -.187E+02 -.117E+02   -.107E+01 0.790E+00 -.107E+01   0.256E-04 0.105E-03 0.256E-04
   -.189E+02 -.137E+02 0.137E+02   0.187E+02 0.117E+02 -.117E+02   -.790E+00 0.107E+01 -.107E+01   -.105E-03 -.256E-04 0.256E-04
   0.137E+02 -.137E+02 -.189E+02   -.117E+02 0.117E+02 0.187E+02   -.107E+01 0.107E+01 -.790E+00   0.256E-04 -.256E-04 -.105E-03
   -.128E+01 0.128E+01 -.128E+01   0.352E+00 -.352E+00 0.352E+00   0.784E+00 -.784E+00 0.784E+00   -.248E-04 0.248E-04 -.248E-04
   -.105E+02 0.105E+02 -.105E+02   0.989E+01 -.989E+01 0.989E+01   0.158E+00 -.158E+00 0.158E+00   -.499E-04 0.499E-04 -.499E-04
   0.410E+00 -.410E+00 -.326E-01   0.217E+00 -.217E+00 -.165E+01   -.244E+00 0.244E+00 0.189E+01   0.458E-04 -.458E-04 0.155E-04
   -.326E-01 -.410E+00 0.410E+00   -.165E+01 -.217E+00 0.217E+00   0.189E+01 0.244E+00 -.244E+00   0.155E-04 -.458E-04 0.458E-04
   0.410E+00 0.326E-01 0.410E+00   0.217E+00 0.165E+01 0.217E+00   -.244E+00 -.189E+01 -.244E+00   0.458E-04 -.155E-04 0.458E-04
   -.600E+00 0.600E+00 -.600E+00   0.241E-14 0.200E-14 0.213E-13   0.600E+00 -.600E+00 0.600E+00   0.281E-04 -.281E-04 0.281E-04

 POSITION                                       TOTAL-FORCE (eV/Angst)
      2.35776      3.11196      2.35776        -0.813265      0.813265     -0.813265
      5.27088      0.19883      5.27088         0.051892     -0.051892      0.051892
      2.77260      8.16683      5.45864        -0.419620      0.419620      1.326933
      5.45864      8.16683      2.77260         1.326933      0.419620     -0.419620
      2.77260      5.48078      2.77260        -0.419620     -1.326933     -0.419620
      8.16939     10.86653      8.16939        -0.416768      0.290472     -0.416768
      5.54261      8.23975      8.16939        -0.290472      0.416768     -0.416768
      8.16939      8.23975      5.54261        -0.416768      0.416768     -0.290472
      5.53894      5.40049      5.53894         0.261817     -0.261817      0.261817
      1.28699      1.19729      1.28699         0.870962      1.029647      0.870962
      4.27242      4.18272      1.28699        -1.029647     -0.870962      0.870962
      1.28699      4.18272      4.27242         0.870962     -0.870962     -1.029647
      4.18196      6.75746      4.18196        -0.146219      0.146219     -0.146219
      3.88414      1.58558      3.88414        -0.405280      0.405280     -0.405280
      6.87308      4.06635      4.13445         0.381783     -0.381783      0.211528
      4.13445      4.06635      6.87308         0.211528     -0.381783      0.381783
      6.87308      6.80498      6.87308         0.381783     -0.211528      0.381783
    total drift:                                0.000014     -0.000013      0.000014

  FREE ENERGIE OF THE ION-ELECTRON SYSTEM (eV)
  free  energy   TOTEN  =       -72.35346530 eV

  energy  without entropy=      -72.35346530  energy(sigma->0) =      -72.35346530

 writing wavefunctions