 vasp.6.2.0 18Jan21 (build Nov 12 2021 22:59:13) gamma-only

 executed on             LinuxIFC date 2022.01.21  03:24:47

 INCAR:
   ENCUT = 400
   SIGMA = 0.0001
   EDIFF = 1E-6
   LHFCALC = .TRUE.
   AEXX = 1.0
   ISYM = -1
   ALGO = sub
   NELM = 1
   NBANDS = 544
   NBANDSHIGH = 544

 POTCAR:    PAW Si_GW 04May2012
|           W    W    AA    RRRRR   N    N  II  N    N   GGGG   !!!           |
|           W    W   A  A   R    R  NN   N  II  NN   N  G    G  !!!           |
|           W    W  A    A  R    R  N N  N  II  N N  N  G       !!!           |
|           W WW W  AAAAAA  RRRRR   N  N N  II  N  N N  G  GGG   !            |
|           WW  WW  A    A  R   R   N   NN  II  N   NN  G    G                |
|           W    W  A    A  R    R  N    N  II  N    N   GGGG   !!!           |
|     For optimal performance we recommend to set                             |
|       NCORE = 2 up to number-of-cores-per-socket                            |
|     This setting can greatly improve the performance of VASP for DFT.       |
|     The default, NCORE=1 might be grossly inefficient on modern             |
|     multi-core architectures or massively parallel machines. Do your        |
|     Unfortunately you need to use the default for GW and RPA                |
|     calculations (for HF NCORE is supported but not extensively tested      |
|     yet).                                                                   |

 POTCAR:    PAW Si_GW 04May2012
   VRHFIN =Si: s2p2

   TITEL  = PAW Si_GW 04May2012
   POMASS =   28.085; ZVAL   =    4.000    mass and valenz
   ENMAX  =  245.345; ENMIN  =  184.009 eV

  PAW Si_GW 04May2012                   :

 POSCAR: cd:
  positions in direct lattice
  velocities in cartesian coordinates
 exchange correlation table for  LEXCH =        8
   RHO(1)=    0.500       N(1)  =     2000
   RHO(2)=  100.500       N(2)  =     4000

 ion  position               nearest neighbor table
   1  0.312  0.312  0.062-   3 2.40  12 2.40   5 2.40  10 2.40  11 2.40   4 2.40
   2  0.015  0.015  0.954-  10 2.35  11 2.35  12 2.35  14 2.38
   3  0.510  0.978  0.003-  15 2.34  13 2.35   1 2.40  11 2.49  10 2.49
   4  0.978  0.510  0.003-  16 2.34  13 2.35   1 2.40  12 2.49  10 2.49
   5  0.510  0.510  0.003-  17 2.34  13 2.35   1 2.40  11 2.49  12 2.49
   6  0.998  0.998  0.493-  10 2.34  15 2.34  16 2.34  14 2.35
   7  0.511  0.998  0.493-  11 2.34  15 2.34  17 2.34  14 2.35
   8  0.998  0.511  0.493-  12 2.34  16 2.34  17 2.34  14 2.35
   9  0.484  0.484  0.547-  17 2.35  16 2.35  15 2.35  13 2.38
  10  0.115  0.115  0.122-   6 2.34   2 2.35   1 2.40   4 2.49   3 2.49
  11  0.647  0.115  0.122-   7 2.34   2 2.35   1 2.40   3 2.49   5 2.49
  12  0.115  0.647  0.122-   8 2.34   2 2.35   1 2.40   4 2.49   5 2.49
  13  0.610  0.610  0.171-   5 2.35   4 2.35   3 2.35   9 2.38
  14  0.141  0.141  0.578-   6 2.35   7 2.35   8 2.35   2 2.38
  15  0.627  0.114  0.632-   3 2.34   7 2.34   6 2.34   9 2.35
  16  0.114  0.627  0.632-   4 2.34   8 2.34   6 2.34   9 2.35
  17  0.627  0.627  0.632-   5 2.34   7 2.34   8 2.34   9 2.35

IMPORTANT INFORMATION: All symmetrisations will be switched off!
NOSYMM: (Re-)initialisation of all symmetry stuff for point group C_1.

                                     Primitive cell

  volume of cell :     327.2832

  direct lattice vectors                    reciprocal lattice vectors
     5.469713400  5.469713400  0.000000000     0.091412468  0.091412468 -0.091412468
     0.000000000  5.469713400  5.469713400    -0.091412468  0.091412468  0.091412468
     5.469713400  0.000000000  5.469713400     0.091412468 -0.091412468  0.091412468

  length of vectors
     7.735342873  7.735342873  7.735342873     0.158331039  0.158331039  0.158331039

  position of ions in fractional coordinates (direct lattice)
     0.312500000  0.312500000  0.062500000
     0.015359614  0.015359614  0.953921159
     0.509587875  0.978014595  0.002809655
     0.978014595  0.509587875  0.002809655
     0.509587875  0.509587875  0.002809655
     0.997927239  0.997927239  0.493117661
     0.511027862  0.997927239  0.493117661
     0.997927239  0.511027862  0.493117661
     0.484244395  0.484244395  0.547266815
     0.115412125  0.115412125  0.122190345
     0.646985405  0.115412125  0.122190345
     0.115412125  0.646985405  0.122190345
     0.609640386  0.609640386  0.171078841
     0.140755605  0.140755605  0.577733185
     0.627072761  0.113972138  0.631882339
     0.113972138  0.627072761  0.631882339
     0.627072761  0.627072761  0.631882339

  ion indices of the primitive-cell ions
   primitive index   ion index
                 1           1
                 2           2
                 3           3
                 4           4
                 5           5
                 6           6
                 7           7
                 8           8
                 9           9
                10          10
                11          11
                12          12
                13          13
                14          14
                15          15
                16          16
                17          17

 KPOINTS: Automatic mesh

Automatic generation of k-mesh.
 Grid dimensions read from file:
 generate k-points for:    1    1    1

 Generating k-lattice:

  Cartesian coordinates                     Fractional coordinates (reciprocal lattice)
     0.091412468  0.091412468 -0.091412468     1.000000000  0.000000000  0.000000000
    -0.091412468  0.091412468  0.091412468     0.000000000  1.000000000 -0.000000000
     0.091412468 -0.091412468  0.091412468    -0.000000000 -0.000000000  1.000000000

  Length of vectors
     0.158331039  0.158331039  0.158331039

  Shift w.r.t. Gamma in fractional coordinates (k-lattice)
     0.000000000  0.000000000  0.000000000

 Subroutine IBZKPT returns following result:

 Found      1 irreducible k-points:

 Following reciprocal coordinates:
            Coordinates               Weight
  0.000000  0.000000  0.000000      1.000000

 Following cartesian coordinates:
            Coordinates               Weight
  0.000000  0.000000  0.000000      1.000000

 WARNING: full set of k-points will be restricted to regular points only.

 Subroutine IBZKPT_HF returns following result:

 Found      1 k-points in 1st BZ
 the following      1 k-points will be used (e.g. in the exchange kernel)
 Following reciprocal coordinates:   # in IRBZ
  0.000000  0.000000  0.000000    1.00000000   1 t-inv F
|           W    W    AA    RRRRR   N    N  II  N    N   GGGG   !!!           |
|           W    W   A  A   R    R  NN   N  II  NN   N  G    G  !!!           |
|           W    W  A    A  R    R  N N  N  II  N N  N  G       !!!           |
|           W WW W  AAAAAA  RRRRR   N  N N  II  N  N N  G  GGG   !            |
|           WW  WW  A    A  R   R   N   NN  II  N   NN  G    G                |
|           W    W  A    A  R    R  N    N  II  N    N   GGGG   !!!           |
|     The number of bands has been changed from the values supplied in        |
|     the INCAR file. This is a result of running the parallel version.       |
|     The orbitals not found in the WAVECAR file will be initialized with     |
|     random numbers, which is usually adequate. For correlated               |
|     calculations, however, you should redo the groundstate calculation.     |
|     I found NBANDS = 544. Now, NBANDS = 576.                                |

 SYSTEM =  unknown system
 POSCAR =  cd:

 Startparameter for this run:
   NWRITE =      2    write-flag & timer
   PREC   = normal    normal or accurate (medium, high low for compatibility)
   ISTART =      1    job   : 0-new  1-cont  2-samecut
   ICHARG =      0    charge: 1-file 2-atom 10-const
   ISPIN  =      1    spin polarized calculation?
   LNONCOLLINEAR =      F non collinear calculations
   LSORBIT =      F    spin-orbit coupling
   INIWAV =      1    electr: 0-lowe 1-rand  2-diag
   LASPH  =      F    aspherical Exc in radial PAW
   METAGGA=      F    non-selfconsistent MetaGGA calc.

 Electronic Relaxation 1
   ENCUT  =  400.0 eV  29.40 Ry    5.42 a.u.  12.61 12.61 12.61*2*pi/ulx,y,z
   ENINI  =  400.0     initial cutoff
   ENAUG  =  413.0 eV  augmentation charge cutoff
   NELM   =      1;   NELMIN=  2; NELMDL=  0     # of ELM steps
   EDIFF  = 0.1E-05   stopping-criterion for ELM
   LREAL  =      F    real-space projection
   NLSPLINE    = F    spline interpolate recip. space projectors
   LCOMPAT=      F    compatible to vasp.4.4
   GGA_COMPAT  = T    GGA compatible to vasp.4.4-vasp.4.6
   LMAXPAW     = -100 max onsite density
   LMAXMIX     =    2 max onsite mixed and CHGCAR
   VOSKOWN=      0    Vosko Wilk Nusair interpolation
   ROPT   =    0.00000
 Ionic relaxation
   EDIFFG = 0.1E-04   stopping-criterion for IOM
   NSW    =      0    number of steps for IOM
   NBLOCK =      1;   KBLOCK =      1    inner block; outer block
   IBRION =     -1    ionic relax: 0-MD 1-quasi-New 2-CG
   NFREE  =      0    steps in history (QN), initial steepest desc. (CG)
   ISIF   =      0    stress and relaxation
   IWAVPR =     10    prediction:  0-non 1-charg 2-wave 3-comb
   ISYM   =     -1    0-nonsym 1-usesym 2-fastsym
   LCORR  =      T    Harris-Foulkes like correction to forces

   POTIM  = 0.5000    time-step for ionic-motion
   TEIN   =    0.0    initial temperature
   TEBEG  =    0.0;   TEEND  =   0.0 temperature during run
   SMASS  =  -3.00    Nose mass-parameter (am)
   estimated Nose-frequenzy (Omega)   =  0.10E-29 period in steps = 0.13E+47 mass=  -0.137E-26a.u.
   SCALEE = 1.0000    scale energy and forces
   NPACO  =    256;   APACO  = 16.0  distance and # of slots for P.C.
   PSTRESS=    0.0 pullay stress

  Mass of Ions in am
   POMASS =  28.09
  Ionic Valenz
   ZVAL   =   4.00
  Atomic Wigner-Seitz radii
  virtual crystal weights
   VCA    =   1.00
   NELECT =      68.0000    total number of electrons
   NUPDOWN=      -1.0000    fix difference up-down

 DOS related values:
   EMIN   =  10.00;   EMAX   =-10.00  energy-range for DOS
   EFERMI =   0.00
   ISMEAR =     1;   SIGMA  =   0.00  broadening in eV -4-tet -1-fermi 0-gaus

 Electronic relaxation 2 (details)
   IALGO  =      4    algorithm
   LDIAG  =      T    sub-space diagonalisation (order eigenvalues)
   LSUBROT=      F    optimize rotation matrix (better conditioning)
   TURBO    =      0    0=normal 1=particle mesh
   IRESTART =      0    0=no restart 2=restart with 2 vectors
   NREBOOT  =      0    no. of reboots
   NMIN     =      0    reboot dimension
   EREF     =   0.00    reference energy to select bands
   IMIX   =      1    mixing-type and parameters
     AMIX     =   0.40;   BMIX     =  1.00
     AMIX_MAG =   1.60;   BMIX_MAG =  1.00
     AMIN     =   0.10
     WC   =   100.;   INIMIX=   1;  MIXPRE=   1;  MAXMIX= -45

 Intra band minimization:
   WEIMIN = 0.0000     energy-eigenvalue tresh-hold
   EBREAK =  0.43E-09  absolut break condition
   DEPER  =   0.30     relativ break condition

   TIME   =   0.40     timestep for ELM

  volume/ion in A,a.u.               =      19.25       129.92
  Fermi-wavevector in a.u.,A,eV,Ry     =   0.969624  1.832323 12.791792  0.940170
[...]

 Dipole corrections
   LMONO  =      F    monopole corrections only (constant potential shift)
   LDIPOL =      F    correct potential (dipole corrections)
   IDIPOL =      0    1-x, 2-y, 3-z, 4-all directions
   EPSILON=  1.0000000 bulk dielectric constant

 Exchange correlation treatment:
   GGA     =    --    GGA type
   VOSKOWN=      0    Vosko Wilk Nusair interpolation
   EXXOEP  =     0    0=HF, 1=EXX-LHF (local Hartree Fock) 2=EXX OEP
   LHFCALC =     T    Hartree Fock is set to
   LSYMGRAD=     F    symmetrize gradient (conserves proper symmetry)
   PRECFOCK=normal    Normal, Fast or Accurate (Low or Medium for compatibility)
   LRHFCALC=     F    long range Hartree Fock
   LRSCOR  =     F    long range correlation only (use DFT for short range part)
   LTHOMAS =     F    Thomas Fermi screening in HF
   LMODELHF=     F    short range full HF, long range fraction AEXX
   LFOCKACE=     T    use Adeptively-Compressed-Exchange operator
   ENCUT4O =  -1.0   cutoff for four orbital integrals eV
   LMAXFOCK=     4    L truncation for augmentation on plane wave grid
   LMAXFOCKAE=  -1    L truncation for all-electron charge restoration on plane wave grid
   NMAXFOCKAE=   1    number of basis functions for all-electron charge restoration
   LFOCKAEDFT=     F  apply the AE augmentation even for DFT
   NKREDX  =     1    reduce k-point grid by
   NKREDY  =     1    reduce k-point grid by
   NKREDZ  =     1    reduce k-point grid by
   SHIFTRED=     F    shift reduced grid of Gamma
   HFKIDENT=     F    idential grid for each k-point
   ODDONLY =     F    use only odd q-grid points
   EVENONLY=     F    use only even q-grid points
   HFALPHA =   -1.0000 decay constant for conv. correction
   MCALPHA =    0.0000 extent of test-charge in conv. correction in multipole expansion
   AEXX    =    1.0000 exact exchange contribution
   HFSCREEN=    0.0000 screening length (either q_TF or 0.3 A-1)
   HFSCREENC=   0.0000 screening length for correlation (either q_TF or 0.3 A-1)
   HFRCUT  =    0.0000 spherical cutoff for potential kernel
   ALDAX   =    0.0000 LDA exchange part
   AGGAX   =    0.0000 GGA exchange part
   ALDAC   =    0.0000 LDA correlation
   AGGAC   =    0.0000 GGA correlation
   ENCUTFOCK=  -1.0 apply spherical cutoff to Coloumb kernel
   NBANDSGWLOW=     1    first orbital included in HF term
   NBLOCK_FOCK=    64    blocking factor in FOCK_ACC
 Linear response parameters
   LEPSILON=     F    determine dielectric tensor
   LRPA    =     F    only Hartree local field effects (RPA)
   LNABLA  =     F    use nabla operator in PAW spheres
   LVEL    =     F    velocity operator in full k-point grid
   LINTERFAST=   F  fast interpolation
   KINTER  =     0    interpolate to denser k-point grid
   CSHIFT  =0.1000    complex shift for real part using Kramers Kronig
   OMEGAMAX=  -1.0    maximum frequency
   DEG_THRESHOLD= 0.2000000E-02 threshold for treating states as degnerate
   RTIME   =   -0.100 relaxation time in fs
  (WPLASMAI=    0.000 imaginary part of plasma frequency in eV, 0.658/RTIME)
   DFIELD  = 0.0000000 0.0000000 0.0000000 field for delta impulse in time

 Orbital magnetization related:
   ORBITALMAG=     F  switch on orbital magnetization
   LCHIMAG   =     F  perturbation theory with respect to B field
   DQ        =  0.001000  dq finite difference perturbation B field
   LLRAUG    =     F  two centre corrections for induced B field

 Static calculation
 charge density and potential will be updated during run
 non-spin polarized calculation
 Subrot: only subspace diagonalization (rotation)
    band-by band algorithm
 perform sub-space diagonalisation
    before iterative eigenvector-optimisation
 Kerker-like  mixing scheme
 using additional bands          542
 reciprocal scheme for non local part
 use partial core corrections
 calculate Harris-corrections to forces
   (improved forces if not selfconsistent)
 use gradient corrections
 use of overlap-Matrix (Vanderbilt PP)
 Methfessel and Paxton  Order N= 1 SIGMA  =   0.00

  energy-cutoff  :      400.00
  volume of cell :      327.28
      direct lattice vectors                 reciprocal lattice vectors
     5.469713400  5.469713400  0.000000000     0.091412468  0.091412468 -0.091412468
     0.000000000  5.469713400  5.469713400    -0.091412468  0.091412468  0.091412468
     5.469713400  0.000000000  5.469713400     0.091412468 -0.091412468  0.091412468

[...]

 old parameters found on file WAVECAR:
  energy-cutoff  :      400.00
  volume of cell :      327.28
      direct lattice vectors                 reciprocal lattice vectors
     5.469713400  5.469713400  0.000000000     0.091412468  0.091412468 -0.091412468
     0.000000000  5.469713400  5.469713400    -0.091412468  0.091412468  0.091412468
     5.469713400  0.000000000  5.469713400     0.091412468 -0.091412468  0.091412468

  length of vectors

 k-points in units of 2pi/SCALE and weight: Automatic mesh
   0.00000000  0.00000000  0.00000000       1.000

 k-points in reciprocal lattice and weights: Automatic mesh
   0.00000000  0.00000000  0.00000000       1.000

 position of ions in fractional coordinates (direct lattice)
   0.31250000  0.31250000  0.06250000
   0.01535961  0.01535961  0.95392116
   0.50958788  0.97801459  0.00280965
   0.97801459  0.50958788  0.00280965
   0.50958788  0.50958788  0.00280965
   0.99792724  0.99792724  0.49311766
   0.51102786  0.99792724  0.49311766
   0.99792724  0.51102786  0.49311766
   0.48424440  0.48424440  0.54726681
   0.11541212  0.11541212  0.12219035
   0.64698541  0.11541212  0.12219035
   0.11541212  0.64698541  0.12219035
   0.60964039  0.60964039  0.17107884
   0.14075560  0.14075560  0.57773319
   0.62707276  0.11397214  0.63188234
   0.11397214  0.62707276  0.63188234
   0.62707276  0.62707276  0.63188234

 position of ions in cartesian coordinates  (Angst):
   2.05114252  3.41857087  2.05114252
   5.30168803  0.16802537  5.30168803
   2.80266764  8.13675916  5.36482754
   5.36482754  8.13675916  2.80266764
   2.80266764  5.57459926  2.80266764
   8.15558827 10.91675198  8.15558827
   5.49238822  8.25355193  8.15558827
   8.15558827  8.25355193  5.49238822
   5.64207069  5.29735611  5.64207069
   1.29961741  1.26254249  1.29961741
   4.20717091  4.17009599  1.29961741
   1.29961741  4.17009599  4.20717091
   4.27031042  6.66911638  4.27031042
   3.92992776  1.53978564  3.92992776
   6.88612358  4.05330322  4.07961023
   4.07961023  4.05330322  6.88612358
   6.88612358  6.85981657  6.88612358

 use serial FFT for orbitals x direction half grid
 k-point   1 :   0.0000 0.0000 0.0000  plane waves:    2981

 maximum and minimum number of plane-waves per node :      2981     2981

 maximum number of plane-waves:      2981
 maximum index in each direction:
   IXMAX=   12   IYMAX=   12   IZMAX=   12
   IXMIN=    0   IYMIN=  -10   IZMIN=  -10

 serial   3D FFT for wavefunctions
 parallel 3D FFT for charge:
    minimum data exchange during FFTs selected (reduces bandwidth)

 Radii for the augmentation spheres in the non-local exchange
 for species   1 augmentation radius   1.405 (default was   1.124)
       energy cutoff for augmentation   1600.0
 Maximum index for augmentation-charges in exchange         2310
  SETUP_FOCK is finished

 charge density for first step will be calculated from the start-wavefunctions

 Maximum index for augmentation-charges          499 (set IRDMAX)

 initial charge from wavefunction

--------------------------------------- Iteration      1(   1)  ---------------------------------------

 eigenvalue-minimisations  :     0
 total energy-change (2. order) :-0.1498798E+03  ( 0.0000000E+00)
 number of electron      67.9999996 magnetization
 augmentation part       -3.6965621 magnetization

 Free energy of the ion-electron system (eV)
  alpha Z        PSCENC =        53.80049087
  Ewald energy   TEWEN  =     -1958.01935177
  -Hartree energ DENC   =      -152.02841816
  -.14987980E+03
  -exchange      EXHF   =       513.19917014
  -V(xc)+E(xc)   XCENC  =         0.00000000
  PAW double counting   =      2290.80236775    -2294.81879781
  entropy T*S    EENTRO =         0.00000000
  eigenvalues    EBANDS =      -202.01387625
  atomic energy  EATOM  =      1599.19861851
  Solvation  Ediel_sol  =         0.00000000
  free energy    TOTEN  =      -149.87979673 eV

  energy without entropy =     -149.87979673  energy(sigma->0) =     -149.87979673
  exchange ACFDT corr.  =     -1034.78628288  see jH, gK, PRB 81, 115126

 average (electrostatic) potential at core
  the test charge radii are     1.1243
  (the norm of the test charge is              1.0000)
       1 -49.6692       2 -49.6589       3 -50.0678       4 -50.0678       5 -50.0678
       6 -49.6004       7 -49.6004       8 -49.6004       9 -49.6044      10 -50.0678
      11 -50.0678      12 -50.0678      13 -49.6589      14 -49.6044      15 -49.6004
      16 -49.6004      17 -49.6004

 E-fermi :   3.1813     XC(G=0):   0.0000     alpha+bet :-12.0749

 Fermi energy:         3.1813335119

 k-point     1 :       0.0000    0.0000    0.0000
  band No.  band energies     occupation
      1     -13.4784      2.00000
      2     -10.2845      2.00000
      3      -9.8847      2.00000
      4      -9.8847      2.00000
      5      -9.7201      2.00000
      6      -8.5038      2.00000
      7      -7.2858      2.00000
      8      -7.2715      2.00000
      9      -7.2715      2.00000
     10      -7.0681      2.00000
     11      -7.0681      2.00000
     12      -6.6023      2.00000
     13      -5.7862      2.00000
     14      -5.4650      2.00000
     15      -5.4650      2.00000
     16      -1.1522      2.00000
     17      -1.1206      2.00000
     18      -1.1206      2.00000
     19      -0.3688      2.00000
     20      -0.3688      2.00000
     21      -0.0916      2.00000
     22       0.9768      2.00000
     23       0.9768      2.00000
     24       1.4230      2.00000
     25       1.4230      2.00000
     26       1.4332      2.00000
     27       1.5067      2.00000
     28       1.5067      2.00000
     29       1.8145      2.00000
     30       1.8523      2.00000
     31       2.7224      2.00000
     32       2.7775      2.00000
     33       2.7775      2.00000
     34       3.0650      2.00000
     35      10.9416      0.00000
     36      10.9668      0.00000
     37      11.3056      0.00000
     38      11.3259      0.00000
     39      11.9806      0.00000
     40      12.1725      0.00000
     41      12.1797      0.00000
     42      12.1832      0.00000
     43      12.2495      0.00000
     44      12.2518      0.00000
     45      13.4378      0.00000
     46      13.6234      0.00000
     47      13.9498      0.00000
     48      13.9502      0.00000
     49      14.2313      0.00000
     50      14.2363      0.00000
     51      14.4740      0.00000
     52      14.4746      0.00000
     53      14.4924      0.00000
     54      14.5149      0.00000
     55      16.0430      0.00000
     56      16.8259      0.00000
     57      18.7012      0.00000
     58      18.7421      0.00000
     59      19.2653      0.00000
     60      19.3932      0.00000
[...]
    562      91.0923      0.00000
    563      91.1025      0.00000
    564      91.3134      0.00000
    565      91.6297      0.00000
    566      91.8722      0.00000
    567      92.0169      0.00000
    568      92.4955      0.00000
    569      92.9765      0.00000
    570      93.0061      0.00000
    571      93.0783      0.00000
    572      94.0854      0.00000
    573      94.1045      0.00000
    574      95.6874      0.00000
    575      95.8209      0.00000
    576      98.5567      0.00000

 soft charge-density along one line, spin component           1
         0         1         2         3         4         5         6         7         8         9
 total charge-density along one line

------------------------ aborting loop because EDIFF is reached ----------------------------------------

 VOLUME and BASIS-vectors are now :
  energy-cutoff  :      400.00
  volume of cell :      327.28
      direct lattice vectors                 reciprocal lattice vectors
     5.469713400  5.469713400  0.000000000     0.091412468  0.091412468 -0.091412468
     0.000000000  5.469713400  5.469713400    -0.091412468  0.091412468  0.091412468
     5.469713400  0.000000000  5.469713400     0.091412468 -0.091412468  0.091412468

  length of vectors
     7.735342873  7.735342873  7.735342873     0.158331039  0.158331039  0.158331039

 FORCES acting on ions
    electron-ion (+dipol)            ewald-force                    non-local-force                 convergence-correction
   -.126E-05 -.114E-05 0.417E-07   0.455E-14 0.178E-13 0.455E-14   -.203E-05 0.109E-04 0.116E-04   0.368E-05 -.817E-05 -.989E-05
   0.466E+01 -.466E+01 0.466E+01   -.444E+01 0.444E+01 -.444E+01   0.473E-01 -.473E-01 0.473E-01   -.474E-04 0.280E-04 -.120E-04
   -.960E+01 0.960E+01 0.203E+02   0.888E+01 -.888E+01 -.217E+02   0.188E+00 -.188E+00 0.228E+01   0.588E-05 0.143E-04 0.452E-04
   0.203E+02 0.960E+01 -.960E+01   -.217E+02 -.888E+01 0.888E+01   0.228E+01 -.188E+00 0.188E+00   0.238E-04 -.635E-05 -.133E-04
   -.960E+01 -.203E+02 -.960E+01   0.888E+01 0.217E+02 0.888E+01   0.188E+00 -.228E+01 0.188E+00   0.158E-04 -.280E-04 -.248E-04
   -.729E+00 0.555E+01 -.729E+00   0.115E+01 -.649E+01 0.115E+01   -.512E+00 0.997E+00 -.512E+00   0.275E-04 0.715E-04 0.405E-04
   -.555E+01 0.729E+00 -.729E+00   0.649E+01 -.115E+01 0.115E+01   -.997E+00 0.512E+00 -.512E+00   -.752E-04 -.220E-04 0.231E-04
   -.729E+00 0.729E+00 -.555E+01   0.115E+01 -.115E+01 0.649E+01   -.512E+00 0.512E+00 -.997E+00   0.373E-04 -.490E-04 -.590E-04
   0.391E+01 -.391E+01 0.391E+01   -.368E+01 0.368E+01 -.368E+01   -.874E-01 0.874E-01 -.875E-01   0.129E-04 -.453E-05 0.769E-06
   0.960E+01 0.203E+02 0.960E+01   -.888E+01 -.217E+02 -.888E+01   -.188E+00 0.228E+01 -.188E+00   -.791E-05 0.352E-04 0.219E-04
   -.203E+02 -.960E+01 0.960E+01   0.217E+02 0.888E+01 -.888E+01   -.228E+01 0.188E+00 -.188E+00   -.250E-04 -.253E-05 0.904E-05
   0.960E+01 -.960E+01 -.203E+02   -.888E+01 0.888E+01 0.217E+02   -.188E+00 0.188E+00 -.228E+01   -.753E-05 -.164E-04 -.309E-04
   -.466E+01 0.466E+01 -.466E+01   0.444E+01 -.444E+01 0.444E+01   -.473E-01 0.473E-01 -.473E-01   0.484E-04 -.269E-04 0.184E-04
   -.391E+01 0.391E+01 -.391E+01   0.368E+01 -.368E+01 0.368E+01   0.874E-01 -.875E-01 0.874E-01   -.141E-04 0.505E-05 -.466E-05
   0.729E+00 -.729E+00 0.555E+01   -.115E+01 0.115E+01 -.649E+01   0.512E+00 -.512E+00 0.997E+00   -.382E-04 0.481E-04 0.667E-04
   0.555E+01 -.729E+00 0.729E+00   -.649E+01 0.115E+01 -.115E+01   0.997E+00 -.512E+00 0.512E+00   0.718E-04 0.226E-04 -.288E-04
   0.729E+00 -.555E+01 0.729E+00   -.115E+01 0.649E+01 -.115E+01   0.512E+00 -.997E+00 0.512E+00   -.299E-04 -.640E-04 -.459E-04
   -.302E-04 0.109E-03 0.131E-03   0.127E-13 0.266E-14 0.115E-13   0.322E-04 -.121E-03 -.142E-03   0.185E-05 -.311E-05 -.362E-05

 POSITION                                       TOTAL-FORCE (eV/Angst)
      2.05114      3.41857      2.05114        -0.000000      0.000004      0.000005
      5.30169      0.16803      5.30169         0.212386     -0.212398      0.212408
      2.80267      8.13676      5.36483        -0.456987      0.456985      1.150468
      5.36483      8.13676      2.80267         1.150454      0.457006     -0.457012
      2.80267      5.57460      2.80267        -0.456999     -1.150449     -0.457000
      8.15559     10.91675      8.15559        -0.163362      0.192388     -0.163360
      5.49239      8.25355      8.15559        -0.192385      0.163358     -0.163357
      8.15559      8.25355      5.49239        -0.163365      0.163359     -0.192377
      5.64207      5.29736      5.64207         0.173089     -0.173086      0.173073
      1.29962      1.26254      1.29962         0.456998      1.150457      0.456991
      4.20717      4.17010      1.29962        -1.150454     -0.457013      0.457003
      1.29962      4.17010      4.20717         0.456993     -0.456994     -1.150456
      4.27031      6.66912      4.27031        -0.212383      0.212396     -0.212409
      3.92993      1.53979      3.92993        -0.173089      0.173081     -0.173079
      6.88612      4.05330      4.07961         0.163366     -0.163362      0.192385
      4.07961      4.05330      6.88612         0.192382     -0.163351      0.163359
      6.88612      6.85982      6.88612         0.163357     -0.192381      0.163357
    total drift:                                0.000008     -0.000032     -0.000035

  FREE ENERGIE OF THE ION-ELECTRON SYSTEM (eV)
  free  energy   TOTEN  =      -149.87979673 eV

  energy  without entropy=     -149.87979673  energy(sigma->0) =     -149.87979673

 writing wavefunctions