 vasp.6.3.0 20Jan22 (build Mar 03 2022 12:53:00) gamma-only

 executed on             LinuxIFC date 2022.03.20  15:49:22

 INCAR:
   ENCUT = 400
   SIGMA = 0.0001
   EDIFF = 1E-6

 POTCAR:    PAW Si_GW 04May2012
|           W    W    AA    RRRRR   N    N  II  N    N   GGGG   !!!           |
|           W    W   A  A   R    R  NN   N  II  NN   N  G    G  !!!           |
|           W    W  A    A  R    R  N N  N  II  N N  N  G       !!!           |
|           W WW W  AAAAAA  RRRRR   N  N N  II  N  N N  G  GGG   !            |
|           WW  WW  A    A  R   R   N   NN  II  N   NN  G    G                |
|           W    W  A    A  R    R  N    N  II  N    N   GGGG   !!!           |
|     For optimal performance we recommend to set                             |
|       NCORE = 2 up to number-of-cores-per-socket                            |
|     This setting can greatly improve the performance of VASP for DFT.       |
|     The default, NCORE=1 might be grossly inefficient on modern             |
|     multi-core architectures or massively parallel machines. Do your        |
|     Unfortunately you need to use the default for GW and RPA                |
|     calculations (for HF NCORE is supported but not extensively tested      |
|     yet).                                                                   |

 POTCAR:    PAW Si_GW 04May2012
   VRHFIN =Si: s2p2

   TITEL  = PAW Si_GW 04May2012
   POMASS =   28.085; ZVAL   =    4.000    mass and valenz
   ENMAX  =  245.345; ENMIN  =  184.009 eV

  PAW Si_GW 04May2012                   :

 POSCAR: cd:
  positions in direct lattice
  velocities in cartesian coordinates
 exchange correlation table for  LEXCH =        8
   RHO(1)=    0.500       N(1)  =     2000
   RHO(2)=  100.500       N(2)  =     4000

 ion  position               nearest neighbor table
   1  0.001  0.001  0.001-   9 2.38  12 2.38  10 2.38
   2  0.496  0.001  0.001-   9 2.38  11 2.38  13 2.38
   3  0.001  0.496  0.001-  10 2.38  11 2.38  14 2.38
   4  0.500  0.500  0.000-   9 2.37  10 2.37  11 2.37  15 2.37
   5  0.001  0.001  0.496-  12 2.38  13 2.38  14 2.38
   6  0.500  0.000  0.500-   9 2.37  12 2.37  13 2.37  15 2.37
   7  0.000  0.500  0.500-  10 2.37  12 2.37  14 2.37  15 2.37
   8  0.500  0.500  0.500-  11 2.37  13 2.37  14 2.37  15 2.37
   9  0.625  0.125  0.125-   4 2.37   6 2.37   2 2.38   1 2.38
  10  0.125  0.625  0.125-   4 2.37   7 2.37   3 2.38   1 2.38
  11  0.625  0.625  0.125-   4 2.37   8 2.37   2 2.38   3 2.38
  12  0.125  0.125  0.625-   6 2.37   7 2.37   5 2.38   1 2.38
  13  0.625  0.125  0.625-   6 2.37   8 2.37   2 2.38   5 2.38
  14  0.125  0.625  0.625-   7 2.37   8 2.37   3 2.38   5 2.38
  15  0.625  0.625  0.625-   4 2.37   7 2.37   6 2.37   8 2.37

  LATTYP: Found a face centered cubic cell.
 ALAT       =    10.9394268000

  Lattice vectors:

 A1 = (   5.4697134000,   5.4697134000,   0.0000000000)
 A2 = (   0.0000000000,   5.4697134000,   5.4697134000)
 A3 = (   5.4697134000,   0.0000000000,   5.4697134000)

Analysis of symmetry for initial positions (statically):
 Subroutine PRICEL returns:
 Original cell was already a primitive cell.

 Routine SETGRP: Setting up the symmetry group for a
 face centered cubic supercell.

 Subroutine GETGRP returns: Found 24 space group operations
 (whereof  6 operations were pure point group operations)
 out of a pool of 48 trial point group operations.

The static configuration has the point symmetry C_3v.
 The point group associated with its full space group is T_d .

Analysis of symmetry for dynamics (positions and initial velocities):
 Subroutine PRICEL returns:
 Original cell was already a primitive cell.

 Routine SETGRP: Setting up the symmetry group for a
 face centered cubic supercell.

 Subroutine GETGRP returns: Found 24 space group operations
 (whereof  6 operations were pure point group operations)
 out of a pool of 48 trial point group operations.

The dynamic configuration has the point symmetry C_3v.
 The point group associated with its full space group is T_d .

 Subroutine INISYM returns: Found 24 space group operations
 (whereof  6 operations are pure point group operations),
 and found     1 'primitive' translations

                                     Primitive cell

  volume of cell :     327.2832

  direct lattice vectors                    reciprocal lattice vectors
     5.469713400  5.469713400  0.000000000     0.091412468  0.091412468 -0.091412468
     0.000000000  5.469713400  5.469713400    -0.091412468  0.091412468  0.091412468
     5.469713400  0.000000000  5.469713400     0.091412468 -0.091412468  0.091412468

  length of vectors
     7.735342873  7.735342873  7.735342873     0.158331039  0.158331039  0.158331039

  position of ions in fractional coordinates (direct lattice)
     0.001371464  0.001371464  0.001371464
     0.495885607  0.001371464  0.001371464
     0.001371464  0.495885607  0.001371464
     0.499999461  0.499999461  0.000001617
     0.001371464  0.001371464  0.495885607
     0.499999461  0.000001617  0.499999461
     0.000001617  0.499999461  0.499999461
     0.499999461  0.499999461  0.499999461
     0.624789722  0.125210278  0.125210278
     0.125210278  0.624789722  0.125210278
     0.624789722  0.624789722  0.125210278
     0.125210278  0.125210278  0.624789722
     0.624789722  0.125210278  0.624789722
     0.125210278  0.624789722  0.624789722
     0.625000000  0.625000000  0.625000000

  ion indices of the primitive-cell ions
   primitive index   ion index
                 1           1
                 2           2
                 3           3
                 4           4
                 5           5
                 6           6
                 7           7
                 8           8
                 9           9
                10          10
                11          11
                12          12
                13          13
                14          14
                15          15

 KPOINTS: Automatic mesh

Automatic generation of k-mesh.
 Grid dimensions read from file:
 generate k-points for:    1    1    1

 Generating k-lattice:

  Cartesian coordinates                     Fractional coordinates (reciprocal lattice)
     0.091412468  0.091412468 -0.091412468     1.000000000  0.000000000  0.000000000
    -0.091412468  0.091412468  0.091412468     0.000000000  1.000000000 -0.000000000
     0.091412468 -0.091412468  0.091412468    -0.000000000 -0.000000000  1.000000000

  Length of vectors
     0.158331039  0.158331039  0.158331039

  Shift w.r.t. Gamma in fractional coordinates (k-lattice)
     0.000000000  0.000000000  0.000000000

 Subroutine IBZKPT returns following result:

 Found      1 irreducible k-points:

 Following reciprocal coordinates:
            Coordinates               Weight
  0.000000  0.000000  0.000000      1.000000

 Following cartesian coordinates:
            Coordinates               Weight
  0.000000  0.000000  0.000000      1.000000

 SYSTEM =  unknown system
 POSCAR =  cd:

 Startparameter for this run:
   NWRITE =      2    write-flag & timer
   PREC   = normal    normal or accurate (medium, high low for compatibility)
   ISTART =      0    job   : 0-new  1-cont  2-samecut
   ICHARG =      2    charge: 1-file 2-atom 10-const
   ISPIN  =      1    spin polarized calculation?
   LNONCOLLINEAR =      F non collinear calculations
   LSORBIT =      F    spin-orbit coupling
   INIWAV =      1    electr: 0-lowe 1-rand  2-diag
   LASPH  =      F    aspherical Exc in radial PAW
 Electronic Relaxation 1
   ENCUT  =  400.0 eV  29.40 Ry    5.42 a.u.  12.61 12.61 12.61*2*pi/ulx,y,z
   ENINI  =  400.0     initial cutoff
   ENAUG  =  413.0 eV  augmentation charge cutoff
   NELM   =     60;   NELMIN=  2; NELMDL= -5     # of ELM steps
   EDIFF  = 0.1E-05   stopping-criterion for ELM
   LREAL  =      F    real-space projection
   NLSPLINE    = F    spline interpolate recip. space projectors
   LCOMPAT=      F    compatible to vasp.4.4
   GGA_COMPAT  = T    GGA compatible to vasp.4.4-vasp.4.6
   LMAXPAW     = -100 max onsite density
   LMAXMIX     =    2 max onsite mixed and CHGCAR
   VOSKOWN=      0    Vosko Wilk Nusair interpolation
   ROPT   =    0.00000
 Ionic relaxation
   EDIFFG = 0.1E-04   stopping-criterion for IOM
   NSW    =      0    number of steps for IOM
   NBLOCK =      1;   KBLOCK =      1    inner block; outer block
   IBRION =     -1    ionic relax: 0-MD 1-quasi-New 2-CG
   NFREE  =      0    steps in history (QN), initial steepest desc. (CG)
   ISIF   =      2    stress and relaxation
   IWAVPR =     10    prediction:  0-non 1-charg 2-wave 3-comb
   ISYM   =      2    0-nonsym 1-usesym 2-fastsym
   LCORR  =      T    Harris-Foulkes like correction to forces

   POTIM  = 0.5000    time-step for ionic-motion
   TEIN   =    0.0    initial temperature
   TEBEG  =    0.0;   TEEND  =   0.0 temperature during run
   SMASS  =  -3.00    Nose mass-parameter (am)
   estimated Nose-frequenzy (Omega)   =  0.10E-29 period in steps = 0.13E+47 mass=  -0.137E-26a.u.
   SCALEE = 1.0000    scale energy and forces
   NPACO  =    256;   APACO  = 10.0  distance and # of slots for P.C.
   PSTRESS=    0.0 pullay stress

  Mass of Ions in am
   POMASS =  28.09
  Ionic Valenz
   ZVAL   =   4.00
  Atomic Wigner-Seitz radii
  virtual crystal weights
   VCA    =   1.00
   NELECT =      60.0000    total number of electrons
   NUPDOWN=      -1.0000    fix difference up-down

 DOS related values:
   EMIN   =  10.00;   EMAX   =-10.00  energy-range for DOS
   EFERMI =   0.00
   ISMEAR =     1;   SIGMA  =   0.00  broadening in eV -4-tet -1-fermi 0-gaus

 Electronic relaxation 2 (details)
   IALGO  =     38    algorithm
   LDIAG  =      T    sub-space diagonalisation (order eigenvalues)
   LSUBROT=      F    optimize rotation matrix (better conditioning)
   TURBO    =      0    0=normal 1=particle mesh
   IRESTART =      0    0=no restart 2=restart with 2 vectors
   NREBOOT  =      0    no. of reboots
   NMIN     =      0    reboot dimension
   EREF     =   0.00    reference energy to select bands
   IMIX   =      4    mixing-type and parameters
     AMIX     =   0.40;   BMIX     =  1.00
     AMIX_MAG =   1.60;   BMIX_MAG =  1.00
     AMIN     =   0.10
     WC   =   100.;   INIMIX=   1;  MIXPRE=   1;  MAXMIX= -45

 Intra band minimization:
   WEIMIN = 0.0000     energy-eigenvalue tresh-hold
   EBREAK =  0.65E-09  absolut break condition
   DEPER  =   0.30     relativ break condition

   TIME   =   0.40     timestep for ELM

  volume/ion in A,a.u.               =      21.82       147.24
  Fermi-wavevector in a.u.,A,eV,Ry     =   0.930002  1.757449 11.767737  0.864904
  Thomas-Fermi vector in A             =   2.056345

 Write flags
   LWAVE        =      T    write WAVECAR
   LDOWNSAMPLE  =      F    k-point downsampling of WAVECAR
   LCHARG       =      T    write CHGCAR
   LVTOT        =      F    write LOCPOT, total local potential
   LVHAR        =      F    write LOCPOT, Hartree potential only
   LELF         =      F    write electronic localiz. function (ELF)
   LORBIT       =      0    0 simple, 1 ext, 2 COOP (PROOUT), +10 PAW based schemes

 Dipole corrections
[...]
   EPSILON=  1.0000000 bulk dielectric constant

 Exchange correlation treatment:
   GGA     =    --    GGA type
   VOSKOWN =     0    Vosko Wilk Nusair interpolation
   LHFCALC =     F    Hartree Fock is set to
   LHFONE  =     F    Hartree Fock one center treatment
   AEXX    =    0.0000 exact exchange contribution

 Linear response parameters
   LEPSILON=     F    determine dielectric tensor
   LRPA    =     F    only Hartree local field effects (RPA)
   LNABLA  =     F    use nabla operator in PAW spheres
   LVEL    =     F    velocity operator in full k-point grid
   CSHIFT  =0.1000    complex shift for real part using Kramers Kronig
   OMEGAMAX=  -1.0    maximum frequency
   DEG_THRESHOLD= 0.2000000E-02 threshold for treating states as degnerate
   RTIME   =   -0.100 relaxation time in fs
  (WPLASMAI=    0.000 imaginary part of plasma frequency in eV, 0.658/RTIME)
   DFIELD  = 0.0000000 0.0000000 0.0000000 field for delta impulse in time

  Optional k-point grid parameters
   LKPOINTS_OPT  =     F    use optional k-point grid
   KPOINTS_OPT_MODE=     1    mode for optional k-point grid

 Orbital magnetization related:
   ORBITALMAG=     F  switch on orbital magnetization
   LCHIMAG   =     F  perturbation theory with respect to B field
   DQ        =  0.001000  dq finite difference perturbation B field
   LLRAUG    =     F  two centre corrections for induced B field

 Static calculation
 charge density and potential will be updated during run
 non-spin polarized calculation
 Variant of blocked Davidson
 Davidson routine will perform the subspace rotation
 perform sub-space diagonalisation
    after iterative eigenvector-optimisation
 modified Broyden-mixing scheme, WC =      100.0
 initial mixing is a Kerker type mixing with AMIX =  0.4000 and BMIX =      1.0000
 Hartree-type preconditioning will be used
 using additional bands          354
 reciprocal scheme for non local part
 use partial core corrections
 calculate Harris-corrections to forces
   (improved forces if not selfconsistent)
 use gradient corrections
 use of overlap-Matrix (Vanderbilt PP)
 Methfessel and Paxton  Order N= 1 SIGMA  =   0.00

  energy-cutoff  :      400.00
  volume of cell :      327.28
      direct lattice vectors                 reciprocal lattice vectors
     5.469713400  5.469713400  0.000000000     0.091412468  0.091412468 -0.091412468
     0.000000000  5.469713400  5.469713400    -0.091412468  0.091412468  0.091412468
     5.469713400  0.000000000  5.469713400     0.091412468 -0.091412468  0.091412468

[...]

 k-points in units of 2pi/SCALE and weight: Automatic mesh
   0.00000000  0.00000000  0.00000000       1.000

 k-points in reciprocal lattice and weights: Automatic mesh
   0.00000000  0.00000000  0.00000000       1.000

 position of ions in fractional coordinates (direct lattice)
   0.00137146  0.00137146  0.00137146
   0.49588561  0.00137146  0.00137146
   0.00137146  0.49588561  0.00137146
   0.49999946  0.49999946  0.00000162
   0.00137146  0.00137146  0.49588561
   0.49999946  0.00000162  0.49999946
   0.00000162  0.49999946  0.49999946
   0.49999946  0.49999946  0.49999946
   0.62478972  0.12521028  0.12521028
   0.12521028  0.62478972  0.12521028
   0.62478972  0.62478972  0.12521028
   0.12521028  0.12521028  0.62478972
   0.62478972  0.12521028  0.62478972
   0.12521028  0.62478972  0.62478972
   0.62500000  0.62500000  0.62500000

 position of ions in cartesian coordinates  (Angst):
   0.01500303  0.01500303  0.01500303
   2.71985367  2.71985367  0.01500303
   0.01500303  2.71985367  2.71985367
   2.73486260  5.46970750  2.73486260
   2.71985367  0.01500303  2.71985367
   5.46970750  2.73486260  2.73486260
   2.73486260  2.73486260  5.46970750
   5.46970750  5.46970750  5.46970750
   4.10228505  4.10228505  1.36972867
   1.36972867  4.10228505  4.10228505
   4.10228505  6.83484143  4.10228505
   4.10228505  1.36972867  4.10228505
   6.83484143  4.10228505  4.10228505
   4.10228505  4.10228505  6.83484143
   6.83714175  6.83714175  6.83714175

 use serial FFT for orbitals x direction half grid
 k-point   1 :   0.0000 0.0000 0.0000  plane waves:    2981

 maximum and minimum number of plane-waves per node :      2981     2981

 maximum number of plane-waves:      2981
 maximum index in each direction:
   IXMAX=   12   IYMAX=   12   IZMAX=   12
   IXMIN=    0   IYMIN=  -10   IZMIN=  -10

 serial   3D FFT for wavefunctions
 parallel 3D FFT for charge:
    minimum data exchange during FFTs selected (reduces bandwidth)

 Broyden mixing: mesh for mixing (old mesh)
   NGX = 25   NGY = 25   NGZ = 25
  (NGX  = 80   NGY  = 80   NGZ  = 80)
  gives a total of  15625 points

 initial charge density was supplied:
 charge density of overlapping atoms calculated
 number of electron      60.0000000 magnetization
 keeping initial charge density in first step

 Maximum index for augmentation-charges          499 (set IRDMAX)

 First call to EWALD:  gamma=   0.257
 Maximum number of real-space cells 3x 3x 3
 Maximum number of reciprocal cells 3x 3x 3

--------------------------------------- Iteration      1(   1)  ---------------------------------------

 eigenvalue-minimisations  :  1152
 total energy-change (2. order) :-0.4922369E+02  (-0.2809665E+04)
 number of electron      60.0000000 magnetization
 augmentation part       60.0000000 magnetization

 Free energy of the ion-electron system (eV)
  alpha Z        PSCENC =        41.88619531
  Ewald energy   TEWEN  =     -1640.06298675
  -Hartree energ DENC   =      -112.10054431
  -exchange      EXHF   =         0.00000000
  -V(xc)+E(xc)   XCENC  =      -143.74822886
  PAW double counting   =      1325.78206362    -1057.95776533
  entropy T*S    EENTRO =         0.00000000
  eigenvalues    EBANDS =        -9.00861461
  atomic energy  EATOM  =      1545.98619342
  Solvation  Ediel_sol  =         0.00000000
  free energy    TOTEN  =       -49.22368752 eV

  energy without entropy =      -49.22368752  energy(sigma->0) =      -49.22368752

[...]

 Broyden mixing:
  rms(total) = 0.10236E+01    rms(broyden)= 0.10236E+01
  rms(prec ) = 0.20965E+01
  weight for this iteration     100.00

[...]

 eigenvalue-minimisations  :  1536
 total energy-change (2. order) : 0.2648347E+01  (-0.1451596E+01)
 number of electron      59.9999979 magnetization
 augmentation part       -3.4550476 magnetization

[...]

 eigenvalues of (default mixing * dielectric matrix)
  average eigenvalue GAMMA=   1.5767
  1.5767

[...]

 eigenvalue-minimisations  :  1536
 total energy-change (2. order) : 0.1087301E+00  (-0.4931325E-01)
 number of electron      59.9999980 magnetization
 augmentation part       -3.3980016 magnetization

[...]

 Broyden mixing:
  rms(total) = 0.13905E-03    rms(broyden)= 0.13905E-03
  rms(prec ) = 0.30932E-03
  weight for this iteration     100.00

 eigenvalues of (default mixing * dielectric matrix)
  average eigenvalue GAMMA=   1.6754
  3.2385  2.5951  2.0755  1.5394  0.7764  1.0140  1.0821  1.0821

[...]

--------------------------------------- Iteration      1(  14)  ---------------------------------------

 eigenvalue-minimisations  :  1536
 total energy-change (2. order) :-0.2811869E-06  (-0.4360667E-07)
 number of electron      59.9999979 magnetization
 augmentation part       -3.3996041 magnetization

 Free energy of the ion-electron system (eV)
  alpha Z        PSCENC =        41.88619531
  Ewald energy   TEWEN  =     -1640.06298675
  -Hartree energ DENC   =      -151.29464873
  -exchange      EXHF   =         0.00000000
  -V(xc)+E(xc)   XCENC  =      -137.98471768
  PAW double counting   =      1913.51960785    -1647.84166512
  entropy T*S    EENTRO =        -0.00007467
  eigenvalues    EBANDS =        13.74604440
  atomic energy  EATOM  =      1545.98619342
  Solvation  Ediel_sol  =         0.00000000
  free energy    TOTEN  =       -62.04605198 eV

  energy without entropy =      -62.04597731  energy(sigma->0) =      -62.04602709

 average (electrostatic) potential at core
  the test charge radii are     1.1243
  (the norm of the test charge is              1.0000)
       1 -68.3174       2 -68.3174       3 -68.3174       4 -67.2604       5 -68.3174
       6 -67.2604       7 -67.2604       8 -67.2604       9 -67.5733      10 -67.5733
      11 -67.5733      12 -67.5733      13 -67.5733      14 -67.5733      15 -67.0469

 E-fermi :   5.6927     XC(G=0):  -8.9773     alpha+bet :-10.6543

 Fermi energy:         5.6926948769

 k-point     1 :       0.0000    0.0000    0.0000
  band No.  band energies     occupation
      1      -6.7265      2.00000
      2      -4.6428      2.00000
      3      -4.6428      2.00000
      4      -4.6428      2.00000
      5      -3.9413      2.00000
      6      -2.8696      2.00000
      7      -2.8696      2.00000
      8      -2.7277      2.00000
      9      -2.7277      2.00000
     10      -2.7277      2.00000
     11      -2.0695      2.00000
     12      -1.7752      2.00000
     13      -1.7752      2.00000
     14      -1.7752      2.00000
     15       1.0112      2.00000
     16       2.0331      2.00000
     17       2.0331      2.00000
     18       2.0331      2.00000
     19       2.5838      2.00000
     20       2.5838      2.00000
     21       2.5838      2.00000
     22       3.6841      2.00000
     23       3.6841      2.00000
     24       3.6841      2.00000
     25       3.7118      2.00000
     26       3.7118      2.00000
     27       4.5854      2.00000
     28       4.5854      2.00000
     29       4.5854      2.00000
     30       5.6927      0.66785
     31       5.6927      0.66608
     32       5.6927      0.66608
     33       5.8058      0.00000
     34       5.8058      0.00000
     35       5.8974      0.00000
     36       6.0932      0.00000
     37       6.0932      0.00000
     38       6.0932      0.00000
     39       6.4703      0.00000
     40       6.4703      0.00000
     41       6.4703      0.00000
     42       7.5341      0.00000
     43       7.7686      0.00000
     44       7.7686      0.00000
     45       7.7686      0.00000
     46       8.1670      0.00000
     47       8.1670      0.00000
     48       8.1670      0.00000
     49       8.5823      0.00000
     50       8.5823      0.00000
     51       9.4349      0.00000
     52       9.4349      0.00000
     53       9.4349      0.00000
     54      10.0193      0.00000
     55      12.6556      0.00000
     56      12.8445      0.00000
     57      12.8445      0.00000
     58      12.8491      0.00000
     59      12.8491      0.00000
     60      12.8491      0.00000
[...]
    370      55.9959      0.00000
    371      56.2501      0.00000
    372      56.2501      0.00000
    373      56.3415      0.00000
    374      56.3415      0.00000
    375      56.3415      0.00000
    376      56.5399      0.00000
    377      56.8459      0.00000
    378      56.8460      0.00000
    379      56.8460      0.00000
    380      57.1185      0.00000
    381      57.1185      0.00000
    382      57.1185      0.00000
    383      57.2836      0.00000
    384      57.2836      0.00000

 soft charge-density along one line, spin component           1
         0         1         2         3         4         5         6         7         8         9
 total charge-density along one line

------------------------ aborting loop because EDIFF is reached ----------------------------------------

  FORCE on cell =-STRESS in cart. coord.  units (eV):
  Direction    XX          YY          ZZ          XY          YZ          ZX
  Alpha Z    41.88620    41.88620    41.88620
  Ewald    -546.68937  -546.68937  -546.68937     0.00000     0.00000     0.00000
  Hartree    50.43157    50.43157    50.43157     0.00000     0.00000     0.00000
  E(xc)    -187.38861  -187.38861  -187.38861    -0.00001    -0.00001    -0.00001
  Local    -230.33470  -230.33470  -230.33470     0.00005     0.00005     0.00005
  n-local   521.52823   521.52823   521.52823     0.00107     0.00107     0.00107
  augment   -79.27752   -79.27752   -79.27752    -0.00007    -0.00007    -0.00007
  Kinetic   436.67492   436.67492   436.67492     0.00234     0.00234     0.00234
  Fock        0.00000     0.00000     0.00000     0.00000     0.00000     0.00000
  Total       6.83071     6.83071     6.83071     0.00000     0.00000    -0.00000
  in kB      33.43898    33.43898    33.43898     0.00000     0.00000    -0.00000

 VOLUME and BASIS-vectors are now :
  energy-cutoff  :      400.00
  volume of cell :      327.28
      direct lattice vectors                 reciprocal lattice vectors
     5.469713400  5.469713400  0.000000000     0.091412468  0.091412468 -0.091412468
     0.000000000  5.469713400  5.469713400    -0.091412468  0.091412468  0.091412468
     5.469713400  0.000000000  5.469713400     0.091412468 -0.091412468  0.091412468

  length of vectors
     7.735342873  7.735342873  7.735342873     0.158331039  0.158331039  0.158331039

 FORCES acting on ions
    electron-ion (+dipol)            ewald-force                    non-local-force                 convergence-correction
   -.185E+02 -.185E+02 -.185E+02   0.189E+02 0.189E+02 0.189E+02   -.115E+01 -.115E+01 -.115E+01   0.916E-04 0.916E-04 0.916E-04
   0.185E+02 0.185E+02 -.185E+02   -.189E+02 -.189E+02 0.189E+02   0.115E+01 0.115E+01 -.115E+01   -.916E-04 -.916E-04 0.916E-04
   -.185E+02 0.185E+02 0.185E+02   0.189E+02 -.189E+02 -.189E+02   -.115E+01 0.115E+01 0.115E+01   0.916E-04 -.916E-04 -.916E-04
   -.164E+01 0.164E+01 -.164E+01   0.122E+01 -.122E+01 0.122E+01   0.166E+00 -.166E+00 0.166E+00   -.157E-03 0.157E-03 -.157E-03
   0.185E+02 -.185E+02 0.185E+02   -.189E+02 0.189E+02 -.189E+02   0.115E+01 -.115E+01 0.115E+01   -.916E-04 0.916E-04 -.916E-04
   0.164E+01 -.164E+01 -.164E+01   -.122E+01 0.122E+01 0.122E+01   -.166E+00 0.166E+00 0.166E+00   0.157E-03 -.157E-03 -.157E-03
   -.164E+01 -.164E+01 0.164E+01   0.122E+01 0.122E+01 -.122E+01   0.166E+00 0.166E+00 -.166E+00   -.157E-03 -.157E-03 0.157E-03
   0.164E+01 0.164E+01 0.164E+01   -.122E+01 -.122E+01 -.122E+01   -.166E+00 -.166E+00 -.166E+00   0.157E-03 0.157E-03 0.157E-03
   -.696E-06 -.743E-06 0.187E+01   0.199E-11 0.201E-11 -.138E+01   0.178E-17 0.139E-17 0.232E+00   0.111E-09 0.111E-09 0.161E-03
   0.187E+01 -.743E-06 -.696E-06   -.138E+01 0.203E-11 0.202E-11   0.232E+00 -.210E-17 0.205E-18   0.161E-03 0.111E-09 0.111E-09
   -.140E-05 -.187E+01 -.140E-05   -.104E-11 0.138E+01 -.106E-11   -.350E-18 -.232E+00 -.122E-17   0.394E-09 -.161E-03 0.394E-09
   -.687E-06 0.187E+01 -.687E-06   0.203E-11 -.138E+01 0.201E-11   -.124E-17 0.232E+00 -.124E-17   0.111E-09 0.161E-03 0.111E-09
   -.187E+01 -.145E-05 -.140E-05   0.138E+01 -.105E-11 -.103E-11   -.232E+00 -.101E-17 -.821E-18   -.161E-03 0.394E-09 0.394E-09
   -.140E-05 -.145E-05 -.187E+01   -.105E-11 -.103E-11 0.138E+01   -.560E-18 -.284E-17 -.232E+00   0.394E-09 0.394E-09 -.161E-03
   -.107E-05 -.113E-05 -.107E-05   0.439E-12 0.470E-12 0.439E-12   -.236E-19 -.769E-20 -.211E-19   0.957E-10 0.957E-10 0.957E-10
   0.140E-06 0.116E-06 0.140E-06   0.104E-13 0.561E-14 0.102E-13   -.306E-15 -.531E-15 -.722E-15   0.429E-09 0.429E-09 0.429E-09

 POSITION                                       TOTAL-FORCE (eV/Angst)
      0.01500      0.01500      0.01500        -0.765703     -0.765703     -0.765703
      2.71985      2.71985      0.01500         0.765703      0.765703     -0.765703
      0.01500      2.71985      2.71985        -0.765703      0.765703      0.765703
      2.73486      5.46971      2.73486        -0.247398      0.247398     -0.247398
      2.71985      0.01500      2.71985         0.765703     -0.765703      0.765703
      5.46971      2.73486      2.73486         0.247398     -0.247398     -0.247398
      2.73486      2.73486      5.46971        -0.247398     -0.247398      0.247398
      5.46971      5.46971      5.46971         0.247398      0.247398      0.247398
      4.10229      4.10229      1.36973        -0.000000     -0.000000      0.716044
      1.36973      4.10229      4.10229         0.716044     -0.000000     -0.000000
      4.10229      6.83484      4.10229        -0.000000     -0.716044     -0.000000
      4.10229      1.36973      4.10229        -0.000000      0.716044     -0.000000
      6.83484      4.10229      4.10229        -0.716044     -0.000000     -0.000000
      4.10229      4.10229      6.83484        -0.000000     -0.000000     -0.716044
      6.83714      6.83714      6.83714        -0.000000     -0.000000     -0.000000
    total drift:                                0.000000      0.000000      0.000000

  FREE ENERGIE OF THE ION-ELECTRON SYSTEM (eV)
  free  energy   TOTEN  =       -62.04605198 eV

  energy  without entropy=      -62.04597731  energy(sigma->0) =      -62.04602709

 writing wavefunctions