 vasp.6.3.0 20Jan22 (build Mar 03 2022 12:53:00) gamma-only

 executed on             LinuxIFC date 2022.03.05  11:25:04

 INCAR:
   ENCUT = 400
   SIGMA = 0.0001
   EDIFF = 1E-6
   LHFCALC = .TRUE.
   AEXX = 1.0
   ALGO = C

 POTCAR:    PAW Si_GW 04May2012
|           W    W    AA    RRRRR   N    N  II  N    N   GGGG   !!!           |
|           W    W   A  A   R    R  NN   N  II  NN   N  G    G  !!!           |
|           W    W  A    A  R    R  N N  N  II  N N  N  G       !!!           |
|           W WW W  AAAAAA  RRRRR   N  N N  II  N  N N  G  GGG   !            |
|           WW  WW  A    A  R   R   N   NN  II  N   NN  G    G                |
|           W    W  A    A  R    R  N    N  II  N    N   GGGG   !!!           |
|     For optimal performance we recommend to set                             |
|       NCORE = 2 up to number-of-cores-per-socket                            |
|     This setting can greatly improve the performance of VASP for DFT.       |
|     The default, NCORE=1 might be grossly inefficient on modern             |
|     multi-core architectures or massively parallel machines. Do your        |
|     Unfortunately you need to use the default for GW and RPA                |
|     calculations (for HF NCORE is supported but not extensively tested      |
|     yet).                                                                   |

 POTCAR:    PAW Si_GW 04May2012
   VRHFIN =Si: s2p2

   TITEL  = PAW Si_GW 04May2012
   POMASS =   28.085; ZVAL   =    4.000    mass and valenz
   ENMAX  =  245.345; ENMIN  =  184.009 eV

  PAW Si_GW 04May2012                   :

 POSCAR: cd:
  positions in direct lattice
  velocities in cartesian coordinates
 exchange correlation table for  LEXCH =        8
   RHO(1)=    0.500       N(1)  =     2000
   RHO(2)=  100.500       N(2)  =     4000

 ion  position               nearest neighbor table
   1  0.312  0.312  0.062-   3 2.40  12 2.40   5 2.40  10 2.40  11 2.40   4 2.40
   2  0.015  0.015  0.954-  10 2.35  11 2.35  12 2.35  14 2.38
   3  0.510  0.978  0.003-  15 2.34  13 2.35   1 2.40  11 2.49  10 2.49
   4  0.978  0.510  0.003-  16 2.34  13 2.35   1 2.40  12 2.49  10 2.49
   5  0.510  0.510  0.003-  17 2.34  13 2.35   1 2.40  11 2.49  12 2.49
   6  0.998  0.998  0.493-  10 2.34  15 2.34  16 2.34  14 2.35
   7  0.511  0.998  0.493-  11 2.34  15 2.34  17 2.34  14 2.35
   8  0.998  0.511  0.493-  12 2.34  16 2.34  17 2.34  14 2.35
   9  0.484  0.484  0.547-  17 2.35  16 2.35  15 2.35  13 2.38
  10  0.115  0.115  0.122-   6 2.34   2 2.35   1 2.40   4 2.49   3 2.49
  11  0.647  0.115  0.122-   7 2.34   2 2.35   1 2.40   3 2.49   5 2.49
  12  0.115  0.647  0.122-   8 2.34   2 2.35   1 2.40   4 2.49   5 2.49
  13  0.610  0.610  0.171-   5 2.35   4 2.35   3 2.35   9 2.38
  14  0.141  0.141  0.578-   6 2.35   7 2.35   8 2.35   2 2.38
  15  0.627  0.114  0.632-   3 2.34   7 2.34   6 2.34   9 2.35
  16  0.114  0.627  0.632-   4 2.34   8 2.34   6 2.34   9 2.35
  17  0.627  0.627  0.632-   5 2.34   7 2.34   8 2.34   9 2.35

  LATTYP: Found a face centered cubic cell.
 ALAT       =    10.9394268000

  Lattice vectors:

 A1 = (   5.4697134000,   5.4697134000,   0.0000000000)
 A2 = (   0.0000000000,   5.4697134000,   5.4697134000)
 A3 = (   5.4697134000,   0.0000000000,   5.4697134000)

Analysis of symmetry for initial positions (statically):
 Subroutine PRICEL returns:
 Original cell was already a primitive cell.

 Routine SETGRP: Setting up the symmetry group for a
 face centered cubic supercell.

 Subroutine GETGRP returns: Found 12 space group operations
 (whereof  6 operations were pure point group operations)
 out of a pool of 48 trial point group operations.

The static configuration has the point symmetry C_3v.
 The point group associated with its full space group is D_3d.

Analysis of symmetry for dynamics (positions and initial velocities):
 Subroutine PRICEL returns:
 Original cell was already a primitive cell.

 Routine SETGRP: Setting up the symmetry group for a
 face centered cubic supercell.

 Subroutine GETGRP returns: Found 12 space group operations
 (whereof  6 operations were pure point group operations)
 out of a pool of 48 trial point group operations.

The dynamic configuration has the point symmetry C_3v.
 The point group associated with its full space group is D_3d.

 Subroutine INISYM returns: Found 12 space group operations
 (whereof  6 operations are pure point group operations),
 and found     1 'primitive' translations

                                     Primitive cell

  volume of cell :     327.2832

  direct lattice vectors                    reciprocal lattice vectors
     5.469713400  5.469713400  0.000000000     0.091412468  0.091412468 -0.091412468
     0.000000000  5.469713400  5.469713400    -0.091412468  0.091412468  0.091412468
     5.469713400  0.000000000  5.469713400     0.091412468 -0.091412468  0.091412468

  length of vectors
     7.735342873  7.735342873  7.735342873     0.158331039  0.158331039  0.158331039

  position of ions in fractional coordinates (direct lattice)
     0.312500000  0.312500000  0.062500000
     0.015359614  0.015359614  0.953921159
     0.509587875  0.978014595  0.002809655
     0.978014595  0.509587875  0.002809655
     0.509587875  0.509587875  0.002809655
     0.997927239  0.997927239  0.493117661
     0.511027862  0.997927239  0.493117661
     0.997927239  0.511027862  0.493117661
     0.484244395  0.484244395  0.547266815
     0.115412125  0.115412125  0.122190345
     0.646985405  0.115412125  0.122190345
     0.115412125  0.646985405  0.122190345
     0.609640386  0.609640386  0.171078841
     0.140755605  0.140755605  0.577733185
     0.627072761  0.113972138  0.631882339
     0.113972138  0.627072761  0.631882339
     0.627072761  0.627072761  0.631882339

  ion indices of the primitive-cell ions
   primitive index   ion index
                 1           1
                 2           2
                 3           3
                 4           4
                 5           5
                 6           6
                 7           7
                 8           8
                 9           9
                10          10
                11          11
                12          12
                13          13
                14          14
                15          15
                16          16
                17          17

 KPOINTS: Automatic mesh

Automatic generation of k-mesh.
 Grid dimensions read from file:
 generate k-points for:    1    1    1

 Generating k-lattice:

  Cartesian coordinates                     Fractional coordinates (reciprocal lattice)
     0.091412468  0.091412468 -0.091412468     1.000000000  0.000000000  0.000000000
    -0.091412468  0.091412468  0.091412468     0.000000000  1.000000000 -0.000000000
     0.091412468 -0.091412468  0.091412468    -0.000000000 -0.000000000  1.000000000

  Length of vectors
     0.158331039  0.158331039  0.158331039

  Shift w.r.t. Gamma in fractional coordinates (k-lattice)
     0.000000000  0.000000000  0.000000000

 Subroutine IBZKPT returns following result:

 Found      1 irreducible k-points:

 Following reciprocal coordinates:
            Coordinates               Weight
  0.000000  0.000000  0.000000      1.000000

 Following cartesian coordinates:
            Coordinates               Weight
  0.000000  0.000000  0.000000      1.000000

 Subroutine IBZKPT_HF returns following result:

 Found      1 k-points in 1st BZ
 the following      1 k-points will be used (e.g. in the exchange kernel)
 Following reciprocal coordinates:   # in IRBZ
  0.000000  0.000000  0.000000    1.00000000   1 t-inv F

 SYSTEM =  unknown system
 POSCAR =  cd:

 Startparameter for this run:
   NWRITE =      2    write-flag & timer
   PREC   = normal    normal or accurate (medium, high low for compatibility)
   ISTART =      1    job   : 0-new  1-cont  2-samecut
   ICHARG =      0    charge: 1-file 2-atom 10-const
   ISPIN  =      1    spin polarized calculation?
   LNONCOLLINEAR =      F non collinear calculations
   LSORBIT =      F    spin-orbit coupling
   INIWAV =      1    electr: 0-lowe 1-rand  2-diag
   LASPH  =      F    aspherical Exc in radial PAW
 Electronic Relaxation 1
   ENCUT  =  400.0 eV  29.40 Ry    5.42 a.u.  12.61 12.61 12.61*2*pi/ulx,y,z
   ENINI  =  400.0     initial cutoff
   ENAUG  =  413.0 eV  augmentation charge cutoff
   NELM   =     60;   NELMIN=  2; NELMDL=  0     # of ELM steps
   EDIFF  = 0.1E-05   stopping-criterion for ELM
   LREAL  =      F    real-space projection
   NLSPLINE    = F    spline interpolate recip. space projectors
   LCOMPAT=      F    compatible to vasp.4.4
   GGA_COMPAT  = T    GGA compatible to vasp.4.4-vasp.4.6
   LMAXPAW     = -100 max onsite density
   LMAXMIX     =    2 max onsite mixed and CHGCAR
   VOSKOWN=      0    Vosko Wilk Nusair interpolation
   ROPT   =    0.00000
 Ionic relaxation
   EDIFFG = 0.1E-04   stopping-criterion for IOM
   NSW    =      0    number of steps for IOM
   NBLOCK =      1;   KBLOCK =      1    inner block; outer block
   IBRION =     -1    ionic relax: 0-MD 1-quasi-New 2-CG
   NFREE  =      0    steps in history (QN), initial steepest desc. (CG)
   ISIF   =      0    stress and relaxation
   IWAVPR =     10    prediction:  0-non 1-charg 2-wave 3-comb
   ISYM   =      3    0-nonsym 1-usesym 2-fastsym
   LCORR  =      T    Harris-Foulkes like correction to forces

   POTIM  = 0.5000    time-step for ionic-motion
   TEIN   =    0.0    initial temperature
   TEBEG  =    0.0;   TEEND  =   0.0 temperature during run
   SMASS  =  -3.00    Nose mass-parameter (am)
   estimated Nose-frequenzy (Omega)   =  0.10E-29 period in steps = 0.13E+47 mass=  -0.137E-26a.u.
   SCALEE = 1.0000    scale energy and forces
   NPACO  =    256;   APACO  = 10.0  distance and # of slots for P.C.
   PSTRESS=    0.0 pullay stress

  Mass of Ions in am
   POMASS =  28.09
  Ionic Valenz
   ZVAL   =   4.00
  Atomic Wigner-Seitz radii
  virtual crystal weights
   VCA    =   1.00
   NELECT =      68.0000    total number of electrons
   NUPDOWN=      -1.0000    fix difference up-down

 DOS related values:
   EMIN   =  10.00;   EMAX   =-10.00  energy-range for DOS
   EFERMI =   0.00
   ISMEAR =     1;   SIGMA  =   0.00  broadening in eV -4-tet -1-fermi 0-gaus

 Electronic relaxation 2 (details)
   IALGO  =     58    algorithm
   LDIAG  =      T    sub-space diagonalisation (order eigenvalues)
   LSUBROT=      F    optimize rotation matrix (better conditioning)
   TURBO    =      0    0=normal 1=particle mesh
   IRESTART =      0    0=no restart 2=restart with 2 vectors
   NREBOOT  =      0    no. of reboots
   NMIN     =      0    reboot dimension
   EREF     =   0.00    reference energy to select bands
   IMIX   =      4    mixing-type and parameters
     AMIX     =   0.40;   BMIX     =  1.00
     AMIX_MAG =   1.60;   BMIX_MAG =  1.00
     AMIN     =   0.10
     WC   =   100.;   INIMIX=   1;  MIXPRE=   1;  MAXMIX= -45

 Intra band minimization:
   WEIMIN = 0.0000     energy-eigenvalue tresh-hold
   EBREAK =  0.13E-08  absolut break condition
   DEPER  =   0.30     relativ break condition

   TIME   =   0.40     timestep for ELM

[...]
   LRSCOR  =     F    long range correlation only (use DFT for short range part)
   LTHOMAS =     F    Thomas Fermi screening in HF
   LMODELHF=     F    short range full HF, long range fraction AEXX
   LFOCKACE=     T    use Adeptively-Compressed-Exchange operator
   ENCUT4O =  -1.0   cutoff for four orbital integrals eV
   LMAXFOCK=     4    L truncation for augmentation on plane wave grid
   LMAXFOCKAE=  -1    L truncation for all-electron charge restoration on plane wave grid
   NMAXFOCKAE=   1    number of basis functions for all-electron charge restoration
   LFOCKAEDFT=     F  apply the AE augmentation even for DFT
   NKREDX  =     1    reduce k-point grid by
   NKREDY  =     1    reduce k-point grid by
   NKREDZ  =     1    reduce k-point grid by
   SHIFTRED=     F    shift reduced grid of Gamma
   HFKIDENT=     F    idential grid for each k-point
   ODDONLY =     F    use only odd q-grid points
   EVENONLY=     F    use only even q-grid points
   HFALPHA =   -1.0000 decay constant for conv. correction
   MCALPHA =    0.0000 extent of test-charge in conv. correction in multipole expansion
   AEXX    =    1.0000 exact exchange contribution
   HFSCREEN=    0.0000 screening length (either q_TF or 0.3 A-1)
   HFSCREENC=   0.0000 screening length for correlation (either q_TF or 0.3 A-1)
   HFRCUT  =    0.0000 spherical cutoff for potential kernel
   ALDAX   =    0.0000 LDA exchange part
   AGGAX   =    0.0000 GGA exchange part
   ALDAC   =    0.0000 LDA correlation
   AGGAC   =    0.0000 GGA correlation
   ENCUTFOCK=  -1.0 apply spherical cutoff to Coloumb kernel
   NBANDSGWLOW=     1    first orbital included in HF term
   NBLOCK_FOCK=    64    blocking factor in FOCK_ACC

 Linear response parameters
   LEPSILON=     F    determine dielectric tensor
   LRPA    =     F    only Hartree local field effects (RPA)
   LNABLA  =     F    use nabla operator in PAW spheres
   LVEL    =     F    velocity operator in full k-point grid
   CSHIFT  =0.1000    complex shift for real part using Kramers Kronig
   OMEGAMAX=  -1.0    maximum frequency
   DEG_THRESHOLD= 0.2000000E-02 threshold for treating states as degnerate
   RTIME   =   -0.100 relaxation time in fs
  (WPLASMAI=    0.000 imaginary part of plasma frequency in eV, 0.658/RTIME)
   DFIELD  = 0.0000000 0.0000000 0.0000000 field for delta impulse in time

  Optional k-point grid parameters
   LKPOINTS_OPT  =     F    use optional k-point grid
   KPOINTS_OPT_MODE=     1    mode for optional k-point grid

 Orbital magnetization related:
   ORBITALMAG=     F  switch on orbital magnetization
   LCHIMAG   =     F  perturbation theory with respect to B field
   DQ        =  0.001000  dq finite difference perturbation B field
   LLRAUG    =     F  two centre corrections for induced B field

 Static calculation
 charge density and potential will be updated during run
 non-spin polarized calculation
 Conjugate gradient for all bands (Freysoldt, et al. PRB 79, 241103 (2009))
 preconditioned conjugated gradient
 perform sub-space diagonalisation
    before iterative eigenvector-optimisation
 modified Broyden-mixing scheme, WC =      100.0
 initial mixing is a Kerker type mixing with AMIX =  0.4000 and BMIX =      1.0000
 Hartree-type preconditioning will be used
 using additional bands          158
 reciprocal scheme for non local part
 use partial core corrections
 no Harris-corrections to forces
 use gradient corrections
 use of overlap-Matrix (Vanderbilt PP)
 Methfessel and Paxton  Order N= 1 SIGMA  =   0.00

  energy-cutoff  :      400.00
  volume of cell :      327.28
      direct lattice vectors                 reciprocal lattice vectors
     5.469713400  5.469713400  0.000000000     0.091412468  0.091412468 -0.091412468
     0.000000000  5.469713400  5.469713400    -0.091412468  0.091412468  0.091412468
     5.469713400  0.000000000  5.469713400     0.091412468 -0.091412468  0.091412468

[...]

 old parameters found on file WAVECAR:
  energy-cutoff  :      400.00
  volume of cell :      327.28
      direct lattice vectors                 reciprocal lattice vectors
     5.469713400  5.469713400  0.000000000     0.091412468  0.091412468 -0.091412468
     0.000000000  5.469713400  5.469713400    -0.091412468  0.091412468  0.091412468
     5.469713400  0.000000000  5.469713400     0.091412468 -0.091412468  0.091412468

  length of vectors

 k-points in units of 2pi/SCALE and weight: Automatic mesh
   0.00000000  0.00000000  0.00000000       1.000

 k-points in reciprocal lattice and weights: Automatic mesh
   0.00000000  0.00000000  0.00000000       1.000

 position of ions in fractional coordinates (direct lattice)
   0.31250000  0.31250000  0.06250000
   0.01535961  0.01535961  0.95392116
   0.50958788  0.97801459  0.00280965
   0.97801459  0.50958788  0.00280965
   0.50958788  0.50958788  0.00280965
   0.99792724  0.99792724  0.49311766
   0.51102786  0.99792724  0.49311766
   0.99792724  0.51102786  0.49311766
   0.48424440  0.48424440  0.54726681
   0.11541212  0.11541212  0.12219035
   0.64698541  0.11541212  0.12219035
   0.11541212  0.64698541  0.12219035
   0.60964039  0.60964039  0.17107884
   0.14075560  0.14075560  0.57773319
   0.62707276  0.11397214  0.63188234
   0.11397214  0.62707276  0.63188234
   0.62707276  0.62707276  0.63188234

 position of ions in cartesian coordinates  (Angst):
   2.05114252  3.41857087  2.05114252
   5.30168803  0.16802537  5.30168803
   2.80266764  8.13675916  5.36482754
   5.36482754  8.13675916  2.80266764
   2.80266764  5.57459926  2.80266764
   8.15558827 10.91675198  8.15558827
   5.49238822  8.25355193  8.15558827
   8.15558827  8.25355193  5.49238822
   5.64207069  5.29735611  5.64207069
   1.29961741  1.26254249  1.29961741
   4.20717091  4.17009599  1.29961741
   1.29961741  4.17009599  4.20717091
   4.27031042  6.66911638  4.27031042
   3.92992776  1.53978564  3.92992776
   6.88612358  4.05330322  4.07961023
   4.07961023  4.05330322  6.88612358
   6.88612358  6.85981657  6.88612358

 use serial FFT for orbitals x direction half grid
 k-point   1 :   0.0000 0.0000 0.0000  plane waves:    2981

 maximum and minimum number of plane-waves per node :      2981     2981

 maximum number of plane-waves:      2981
 maximum index in each direction:
   IXMAX=   12   IYMAX=   12   IZMAX=   12
   IXMIN=    0   IYMIN=  -10   IZMIN=  -10

 serial   3D FFT for wavefunctions
 parallel 3D FFT for charge:
    minimum data exchange during FFTs selected (reduces bandwidth)

 Radii for the augmentation spheres in the non-local exchange
 for species   1 augmentation radius   1.405 (default was   1.124)
       energy cutoff for augmentation   1600.0
 Maximum index for augmentation-charges in exchange         2310
  SETUP_FOCK is finished

 Broyden mixing: mesh for mixing (old mesh)
   NGX = 25   NGY = 25   NGZ = 25
  (NGX  = 80   NGY  = 80   NGZ  = 80)
  gives a total of  15625 points

 charge density for first step will be calculated from the start-wavefunctions

 Maximum index for augmentation-charges          492 (set IRDMAX)

 initial charge from wavefunction

--------------------------------------- Iteration      1(   1)  ---------------------------------------

 eigenvalue-minimisations  :     0
 total energy-change (2. order) :-0.1461317E+03  (-0.1182147E+01)
 number of electron      67.9999996 magnetization
 augmentation part       -3.8742800 magnetization

 Free energy of the ion-electron system (eV)
  alpha Z        PSCENC =        53.80049087
  Ewald energy   TEWEN  =     -1958.01935177
  -Hartree energ DENC   =      -146.80990292
  -exchange      EXHF   =       504.40327234
  -V(xc)+E(xc)   XCENC  =         0.00000000
  PAW double counting   =      2105.87147919    -2110.33316930
  entropy T*S    EENTRO =         0.00000000
  eigenvalues    EBANDS =      -194.24318594
  atomic energy  EATOM  =      1599.19861851
  free energy    TOTEN  =      -146.13174901 eV

  energy without entropy =     -146.13174901  energy(sigma->0) =     -146.13174901
  exchange ACFDT corr.  =         0.00000000  see jH, gK, PRB 81, 115126

[...]

--------------------------------------- Iteration      1(  37)  ---------------------------------------

 eigenvalue-minimisations  :     0
 total energy-change (2. order) :-0.7813906E-06  (-0.7210453E-06)
 number of electron      67.9999996 magnetization
 augmentation part       -3.6965606 magnetization

 Free energy of the ion-electron system (eV)
  alpha Z        PSCENC =        53.80049087
  Ewald energy   TEWEN  =     -1958.01935177
  -Hartree energ DENC   =      -152.02843834
  -exchange      EXHF   =       513.19833823
  -V(xc)+E(xc)   XCENC  =         0.00000000
  PAW double counting   =      2290.80926392    -2294.82571048
  entropy T*S    EENTRO =         0.00000000
  eigenvalues    EBANDS =      -202.01300106
  atomic energy  EATOM  =      1599.19861851
  free energy    TOTEN  =      -149.87979485 eV

  energy without entropy =     -149.87979485  energy(sigma->0) =     -149.87979485
  exchange ACFDT corr.  =         0.00000000  see jH, gK, PRB 81, 115126

  average scaling for gradient   0.3928

 average (electrostatic) potential at core
  the test charge radii are     1.1243
  (the norm of the test charge is              1.0000)
       1 -49.6690       2 -49.6588       3 -50.0679       4 -50.0679       5 -50.0679
       6 -49.6004       7 -49.6004       8 -49.6004       9 -49.6043      10 -50.0679
      11 -50.0679      12 -50.0679      13 -49.6588      14 -49.6043      15 -49.6004
      16 -49.6004      17 -49.6004

 E-fermi :   3.1237     XC(G=0):   0.0000     alpha+bet :-12.0749

 Fermi energy:         3.1237333845

 k-point     1 :       0.0000    0.0000    0.0000
  band No.  band energies     occupation
      1     -13.4783      2.00000
      2     -10.2844      2.00000
      3      -9.8846      2.00000
      4      -9.8846      2.00000
      5      -9.7202      2.00000
      6      -8.5038      2.00000
      7      -7.2858      2.00000
      8      -7.2715      2.00000
      9      -7.2715      2.00000
     10      -7.0681      2.00000
     11      -7.0681      2.00000
     12      -6.6023      2.00000
     13      -5.7862      2.00000
     14      -5.4650      2.00000
     15      -5.4650      2.00000
     16      -1.1521      2.00000
     17      -1.1206      2.00000
     18      -1.1206      2.00000
     19      -0.3688      2.00000
     20      -0.3688      2.00000
     21      -0.0915      2.00000
     22       0.9768      2.00000
     23       0.9768      2.00000
     24       1.4230      2.00000
     25       1.4230      2.00000
     26       1.4332      2.00000
     27       1.5067      2.00000
     28       1.5067      2.00000
     29       1.8145      2.00000
     30       1.8524      2.00000
     31       2.7226      2.00000
     32       2.7775      2.00000
     33       2.7775      2.00000
     34       3.0650      2.00000
     35      10.8608      0.00000
     36      10.8608      0.00000
     37      11.2121      0.00000
     38      11.2121      0.00000
     39      11.9341      0.00000
     40      12.1107      0.00000
     41      12.1107      0.00000
     42      12.1267      0.00000
     43      12.1881      0.00000
     44      12.1881      0.00000
     45      13.3636      0.00000
     46      13.5457      0.00000
     47      13.8501      0.00000
     48      13.8501      0.00000
     49      14.1146      0.00000
     50      14.1146      0.00000
     51      14.3543      0.00000
     52      14.3543      0.00000
     53      14.3818      0.00000
     54      14.4307      0.00000
     55      15.9624      0.00000
     56      16.6406      0.00000
     57      18.3483      0.00000
     58      18.3483      0.00000
     59      18.8743      0.00000
     60      19.0881      0.00000
[...]
    178      39.2226      0.00000
    179      39.2227      0.00000
    180      39.2374      0.00000
    181      39.2869      0.00000
    182      39.5883      0.00000
    183      39.5884      0.00000
    184      39.7447      0.00000
    185      39.7447      0.00000
    186      40.0211      0.00000
    187      40.0514      0.00000
    188      40.1842      0.00000
    189      40.1842      0.00000
    190      40.7646      0.00000
    191      41.1266      0.00000
    192      41.1535      0.00000

 soft charge-density along one line, spin component           1
         0         1         2         3         4         5         6         7         8         9
 total charge-density along one line

------------------------ aborting loop because EDIFF is reached ----------------------------------------

 VOLUME and BASIS-vectors are now :
  energy-cutoff  :      400.00
  volume of cell :      327.28
      direct lattice vectors                 reciprocal lattice vectors
     5.469713400  5.469713400  0.000000000     0.091412468  0.091412468 -0.091412468
     0.000000000  5.469713400  5.469713400    -0.091412468  0.091412468  0.091412468
     5.469713400  0.000000000  5.469713400     0.091412468 -0.091412468  0.091412468

  length of vectors
     7.735342873  7.735342873  7.735342873     0.158331039  0.158331039  0.158331039

 FORCES acting on ions:
    Electron-Ion                     Ewald-Force                    Non-Local-Force
   -.136E-06 0.160E-07 0.997E-07   0.455E-14 0.178E-13 0.455E-14   -.144E-23 -.143E-23 -.126E-23
   0.466E+01 -.466E+01 0.466E+01   -.444E+01 0.444E+01 -.444E+01   0.468E-01 -.468E-01 0.468E-01
   -.960E+01 0.960E+01 0.203E+02   0.888E+01 -.888E+01 -.217E+02   0.189E+00 -.189E+00 0.228E+01
   0.203E+02 0.960E+01 -.960E+01   -.217E+02 -.888E+01 0.888E+01   0.228E+01 -.189E+00 0.189E+00
   -.960E+01 -.203E+02 -.960E+01   0.888E+01 0.217E+02 0.888E+01   0.189E+00 -.228E+01 0.189E+00
   -.729E+00 0.554E+01 -.729E+00   0.115E+01 -.649E+01 0.115E+01   -.512E+00 0.997E+00 -.512E+00
   -.554E+01 0.729E+00 -.729E+00   0.649E+01 -.115E+01 0.115E+01   -.997E+00 0.512E+00 -.512E+00
   -.729E+00 0.729E+00 -.554E+01   0.115E+01 -.115E+01 0.649E+01   -.512E+00 0.512E+00 -.997E+00
   0.391E+01 -.391E+01 0.391E+01   -.368E+01 0.368E+01 -.368E+01   -.869E-01 0.869E-01 -.869E-01
   0.960E+01 0.203E+02 0.960E+01   -.888E+01 -.217E+02 -.888E+01   -.189E+00 0.228E+01 -.189E+00
   -.203E+02 -.960E+01 0.960E+01   0.217E+02 0.888E+01 -.888E+01   -.228E+01 0.189E+00 -.189E+00
   0.960E+01 -.960E+01 -.203E+02   -.888E+01 0.888E+01 0.217E+02   -.189E+00 0.189E+00 -.228E+01
   -.466E+01 0.466E+01 -.466E+01   0.444E+01 -.444E+01 0.444E+01   -.468E-01 0.468E-01 -.468E-01
   -.391E+01 0.391E+01 -.391E+01   0.368E+01 -.368E+01 0.368E+01   0.869E-01 -.869E-01 0.869E-01
   0.729E+00 -.729E+00 0.554E+01   -.115E+01 0.115E+01 -.649E+01   0.512E+00 -.512E+00 0.997E+00
   0.554E+01 -.729E+00 0.729E+00   -.649E+01 0.115E+01 -.115E+01   0.997E+00 -.512E+00 0.512E+00
   0.729E+00 -.554E+01 0.729E+00   -.115E+01 0.649E+01 -.115E+01   0.512E+00 -.997E+00 0.512E+00
   -.341E-06 0.235E-06 -.486E-07   0.127E-13 0.266E-14 0.115E-13   -.444E-15 0.111E-14 0.111E-15

 POSITION                                       TOTAL-FORCE (eV/Angst)
      2.05114      3.41857      2.05114        -0.000000     -0.000000      0.000000
      5.30169      0.16803      5.30169         0.212365     -0.212365      0.212365
      2.80267      8.13676      5.36483        -0.457078      0.457078      1.150479
      5.36483      8.13676      2.80267         1.150479      0.457078     -0.457078
      2.80267      5.57460      2.80267        -0.457078     -1.150479     -0.457078
      8.15559     10.91675      8.15559        -0.163629      0.192129     -0.163629
      5.49239      8.25355      8.15559        -0.192129      0.163629     -0.163629
      8.15559      8.25355      5.49239        -0.163629      0.163629     -0.192129
      5.64207      5.29736      5.64207         0.173467     -0.173467      0.173467
      1.29962      1.26254      1.29962         0.457078      1.150479      0.457078
      4.20717      4.17010      1.29962        -1.150479     -0.457078      0.457078
      1.29962      4.17010      4.20717         0.457078     -0.457078     -1.150479
      4.27031      6.66912      4.27031        -0.212365      0.212365     -0.212365
      3.92993      1.53979      3.92993        -0.173467      0.173467     -0.173467
      6.88612      4.05330      4.07961         0.163629     -0.163629      0.192129
      4.07961      4.05330      6.88612         0.192129     -0.163629      0.163629
      6.88612      6.85982      6.88612         0.163629     -0.192129      0.163629
    total drift:                               -0.000000      0.000000     -0.000000

  FREE ENERGIE OF THE ION-ELECTRON SYSTEM (eV)
  free  energy   TOTEN  =      -149.87979485 eV

  energy  without entropy=     -149.87979485  energy(sigma->0) =     -149.87979485

 writing wavefunctions